*Heading
** Job name: stsl Model name: Model-1
** Generated by: Abaqus/CAE 2023
*Preprint, echo=NO, model=NO, history=NO, contact=NO
**
** PARTS
**
*Part, name=Part-3
*Node
      1,           0.,           0.,           2.
      2,           0.,           1.,           2.
      3,           0.,           1.,           1.
      4,           0.,           0.,           1.
      5,           5.,           1.,           2.
      6,           5.,           1.,           1.
      7,           5.,           0.,           1.
      8,           5.,           0.,           2.
      9,          -1.,           2.,           1.
     10,          -1.,          -1.,           1.
     11,           6.,          -1.,           1.
     12,           6.,           2.,           1.
     13,           6.,          -1.,           0.
     14,          -1.,          -1.,           0.
     15,          -1.,           2.,           0.
     16,           6.,           2.,           0.
     17,           0.,          0.5,           2.
     18,           0.,           1.,          1.5
     19,           0.,          0.5,           1.
     20,           0.,           0.,          1.5
     21,           5.,          0.5,           2.
     22,           5.,           1.,          1.5
     23,           5.,          0.5,           1.
     24,           5.,           0.,          1.5
     25,          0.5,           0.,           1.
     26,           1.,           0.,           1.
     27,          1.5,           0.,           1.
     28,           2.,           0.,           1.
     29,          2.5,           0.,           1.
     30,           3.,           0.,           1.
     31,          3.5,           0.,           1.
     32,           4.,           0.,           1.
     33,          4.5,           0.,           1.
     34,          4.5,           0.,           2.
     35,           4.,           0.,           2.
     36,          3.5,           0.,           2.
     37,           3.,           0.,           2.
     38,          2.5,           0.,           2.
     39,           2.,           0.,           2.
     40,          1.5,           0.,           2.
     41,           1.,           0.,           2.
     42,          0.5,           0.,           2.
     43,          4.5,           1.,           1.
     44,           4.,           1.,           1.
     45,          3.5,           1.,           1.
     46,           3.,           1.,           1.
     47,          2.5,           1.,           1.
     48,           2.,           1.,           1.
     49,          1.5,           1.,           1.
     50,           1.,           1.,           1.
     51,          0.5,           1.,           1.
     52,          0.5,           1.,           2.
     53,           1.,           1.,           2.
     54,          1.5,           1.,           2.
     55,           2.,           1.,           2.
     56,          2.5,           1.,           2.
     57,           3.,           1.,           2.
     58,          3.5,           1.,           2.
     59,           4.,           1.,           2.
     60,          4.5,           1.,           2.
     61,          -1.,          1.5,           1.
     62,          -1.,           1.,           1.
     63,          -1.,          0.5,           1.
     64,          -1.,           0.,           1.
     65,          -1.,         -0.5,           1.
     66,         -0.5,          -1.,           1.
     67,           0.,          -1.,           1.
     68,          0.5,          -1.,           1.
     69,           1.,          -1.,           1.
     70,          1.5,          -1.,           1.
     71,           2.,          -1.,           1.
     72,          2.5,          -1.,           1.
     73,           3.,          -1.,           1.
     74,          3.5,          -1.,           1.
     75,           4.,          -1.,           1.
     76,          4.5,          -1.,           1.
     77,           5.,          -1.,           1.
     78,          5.5,          -1.,           1.
     79,           6.,         -0.5,           1.
     80,           6.,           0.,           1.
     81,           6.,          0.5,           1.
     82,           6.,           1.,           1.
     83,           6.,          1.5,           1.
     84,          5.5,           2.,           1.
     85,           5.,           2.,           1.
     86,          4.5,           2.,           1.
     87,           4.,           2.,           1.
     88,          3.5,           2.,           1.
     89,           3.,           2.,           1.
     90,          2.5,           2.,           1.
     91,           2.,           2.,           1.
     92,          1.5,           2.,           1.
     93,           1.,           2.,           1.
     94,          0.5,           2.,           1.
     95,           0.,           2.,           1.
     96,         -0.5,           2.,           1.
     97,          -1.,           2.,          0.5
     98,          -1.,          -1.,          0.5
     99,           6.,           2.,          0.5
    100,           6.,          -1.,          0.5
    101,          5.5,          -1.,           0.
    102,           5.,          -1.,           0.
    103,          4.5,          -1.,           0.
    104,           4.,          -1.,           0.
    105,          3.5,          -1.,           0.
    106,           3.,          -1.,           0.
    107,          2.5,          -1.,           0.
    108,           2.,          -1.,           0.
    109,          1.5,          -1.,           0.
    110,           1.,          -1.,           0.
    111,          0.5,          -1.,           0.
    112,           0.,          -1.,           0.
    113,         -0.5,          -1.,           0.
    114,          -1.,         -0.5,           0.
    115,          -1.,           0.,           0.
    116,          -1.,          0.5,           0.
    117,          -1.,           1.,           0.
    118,          -1.,          1.5,           0.
    119,         -0.5,           2.,           0.
    120,           0.,           2.,           0.
    121,          0.5,           2.,           0.
    122,           1.,           2.,           0.
    123,          1.5,           2.,           0.
    124,           2.,           2.,           0.
    125,          2.5,           2.,           0.
    126,           3.,           2.,           0.
    127,          3.5,           2.,           0.
    128,           4.,           2.,           0.
    129,          4.5,           2.,           0.
    130,           5.,           2.,           0.
    131,          5.5,           2.,           0.
    132,           6.,          1.5,           0.
    133,           6.,           1.,           0.
    134,           6.,          0.5,           0.
    135,           6.,           0.,           0.
    136,           6.,         -0.5,           0.
    137,           0.,          0.5,          1.5
    138,           5.,          0.5,          1.5
    139,          0.5,           0.,          1.5
    140,           1.,           0.,          1.5
    141,          1.5,           0.,          1.5
    142,           2.,           0.,          1.5
    143,          2.5,           0.,          1.5
    144,           3.,           0.,          1.5
    145,          3.5,           0.,          1.5
    146,           4.,           0.,          1.5
    147,          4.5,           0.,          1.5
    148,          0.5,           1.,          1.5
    149,           1.,           1.,          1.5
    150,          1.5,           1.,          1.5
    151,           2.,           1.,          1.5
    152,          2.5,           1.,          1.5
    153,           3.,           1.,          1.5
    154,          3.5,           1.,          1.5
    155,           4.,           1.,          1.5
    156,          4.5,           1.,          1.5
    157,          0.5,          0.5,           2.
    158,           1.,          0.5,           2.
    159,          1.5,          0.5,           2.
    160,           2.,          0.5,           2.
    161,          2.5,          0.5,           2.
    162,           3.,          0.5,           2.
    163,          3.5,          0.5,           2.
    164,           4.,          0.5,           2.
    165,          4.5,          0.5,           2.
    166,          0.5,          0.5,           1.
    167,           1.,          0.5,           1.
    168,          1.5,          0.5,           1.
    169,           2.,          0.5,           1.
    170,          2.5,          0.5,           1.
    171,           3.,          0.5,           1.
    172,          3.5,          0.5,           1.
    173,           4.,          0.5,           1.
    174,          4.5,          0.5,           1.
    175,   5.49986839,  0.999626815,           1.
    176,   1.00092697,   1.49213636,           1.
    177,   3.99901557, -0.492677093,           1.
    178, -0.499637216, 0.000194657463,           1.
    179, -0.499875307, -0.499230474,           1.
    180, -0.500185132,  0.500081718,           1.
    181, -0.500605047,   0.99956435,           1.
    182,   5.49946404, -0.498503298,           1.
    183,   4.99973631, -0.497575402,           1.
    184,   4.49976826, -0.496959031,           1.
    185,   3.49942589, -0.493688136,           1.
    186,   2.49873686, -0.489890158,           1.
    187,    1.9994967, -0.493388504,           1.
    188,   0.99970144, -0.494571447,           1.
    189,  0.499954373, -0.497571051,           1.
    190, 2.31583385e-06, -0.499023616,           1.
    191,   5.49995613,   1.49875164,           1.
    192,   5.49962902,  0.500002325,           1.
    193,   5.49986792, 0.000264676317,           1.
    194, 6.18712147e-05,   1.49678266,           1.
    195,  0.500182867,   1.49654329,           1.
    196,   1.50056422,   1.49346924,           1.
    197,   2.50127769,   1.48988771,           1.
    198,   3.00055051,   1.49331331,           1.
    199,    4.0003767,    1.4937185,           1.
    200,   4.50006819,   1.49685979,           1.
    201,   5.00002861,   1.49863756,           1.
    202,   2.00034165,    1.4948113,           1.
    203,   3.50017381,   1.49595213,           1.
    204,    2.9996593,  -0.49488014,           1.
    205,   1.49984932, -0.496241122,           1.
    206, -0.500178158,     1.498914,           1.
    207,           5.,           0.,           0.
    208,           0.,           0.,           0.
    209,           0.,           1.,           0.
    210,           5.,           1.,           0.
    211,          4.5,           0.,           0.
    212,           4.,           0.,           0.
    213,          3.5,           0.,           0.
    214,           3.,           0.,           0.
    215,          2.5,           0.,           0.
    216,           2.,           0.,           0.
    217,          1.5,           0.,           0.
    218,           1.,           0.,           0.
    219,          0.5,           0.,           0.
    220,           0.,          0.5,           0.
    221,          0.5,           1.,           0.
    222,           1.,           1.,           0.
    223,          1.5,           1.,           0.
    224,           2.,           1.,           0.
    225,          2.5,           1.,           0.
    226,           3.,           1.,           0.
    227,          3.5,           1.,           0.
    228,           4.,           1.,           0.
    229,          4.5,           1.,           0.
    230,           5.,          0.5,           0.
    231,          0.5,          0.5,           0.
    232,           1.,          0.5,           0.
    233,          1.5,          0.5,           0.
    234,           2.,          0.5,           0.
    235,          2.5,          0.5,           0.
    236,           3.,          0.5,           0.
    237,          3.5,          0.5,           0.
    238,           4.,          0.5,           0.
    239,          4.5,          0.5,           0.
    240,   5.49986839,  0.999626815,           0.
    241,   1.00092697,   1.49213636,           0.
    242,   3.99901557, -0.492677093,           0.
    243, -0.499637216, 0.000194657463,           0.
    244, -0.499875307, -0.499230474,           0.
    245, -0.500185132,  0.500081718,           0.
    246, -0.500605047,   0.99956435,           0.
    247,   5.49946404, -0.498503298,           0.
    248,   4.99973631, -0.497575402,           0.
    249,   4.49976826, -0.496959031,           0.
    250,   3.49942589, -0.493688136,           0.
    251,   2.49873686, -0.489890158,           0.
    252,    1.9994967, -0.493388504,           0.
    253,   0.99970144, -0.494571447,           0.
    254,  0.499954373, -0.497571051,           0.
    255, 2.31583385e-06, -0.499023616,           0.
    256,   5.49995613,   1.49875164,           0.
    257,   5.49962902,  0.500002325,           0.
    258,   5.49986792, 0.000264676317,           0.
    259, 6.18712147e-05,   1.49678266,           0.
    260,  0.500182867,   1.49654329,           0.
    261,   1.50056422,   1.49346924,           0.
    262,   2.50127769,   1.48988771,           0.
    263,   3.00055051,   1.49331331,           0.
    264,    4.0003767,    1.4937185,           0.
    265,   4.50006819,   1.49685979,           0.
    266,   5.00002861,   1.49863756,           0.
    267,   2.00034165,    1.4948113,           0.
    268,   3.50017381,   1.49595213,           0.
    269,    2.9996593,  -0.49488014,           0.
    270,   1.49984932, -0.496241122,           0.
    271, -0.500178158,     1.498914,           0.
    272,          -1.,         -0.5,          0.5
    273,          -1.,           0.,          0.5
    274,          -1.,          0.5,          0.5
    275,          -1.,           1.,          0.5
    276,          -1.,          1.5,          0.5
    277,         -0.5,           2.,          0.5
    278,           0.,           2.,          0.5
    279,          0.5,           2.,          0.5
    280,           1.,           2.,          0.5
    281,          1.5,           2.,          0.5
    282,           2.,           2.,          0.5
    283,          2.5,           2.,          0.5
    284,           3.,           2.,          0.5
    285,          3.5,           2.,          0.5
    286,           4.,           2.,          0.5
    287,          4.5,           2.,          0.5
    288,           5.,           2.,          0.5
    289,          5.5,           2.,          0.5
    290,          5.5,          -1.,          0.5
    291,           5.,          -1.,          0.5
    292,          4.5,          -1.,          0.5
    293,           4.,          -1.,          0.5
    294,          3.5,          -1.,          0.5
    295,           3.,          -1.,          0.5
    296,          2.5,          -1.,          0.5
    297,           2.,          -1.,          0.5
    298,          1.5,          -1.,          0.5
    299,           1.,          -1.,          0.5
    300,          0.5,          -1.,          0.5
    301,           0.,          -1.,          0.5
    302,         -0.5,          -1.,          0.5
    303,           6.,          1.5,          0.5
    304,           6.,           1.,          0.5
    305,           6.,          0.5,          0.5
    306,           6.,           0.,          0.5
    307,           6.,         -0.5,          0.5
    308,          0.5,          0.5,          1.5
    309,           1.,          0.5,          1.5
    310,          1.5,          0.5,          1.5
    311,           2.,          0.5,          1.5
    312,          2.5,          0.5,          1.5
    313,           3.,          0.5,          1.5
    314,          3.5,          0.5,          1.5
    315,           4.,          0.5,          1.5
    316,          4.5,          0.5,          1.5
    317,           5.,           0.,          0.5
    318,           0.,           0.,          0.5
    319,           0.,           1.,          0.5
    320,           5.,           1.,          0.5
    321,          4.5,           0.,          0.5
    322,           4.,           0.,          0.5
    323,          3.5,           0.,          0.5
    324,           3.,           0.,          0.5
    325,          2.5,           0.,          0.5
    326,           2.,           0.,          0.5
    327,          1.5,           0.,          0.5
    328,           1.,           0.,          0.5
    329,          0.5,           0.,          0.5
    330,           0.,          0.5,          0.5
    331,          0.5,           1.,          0.5
    332,           1.,           1.,          0.5
    333,          1.5,           1.,          0.5
    334,           2.,           1.,          0.5
    335,          2.5,           1.,          0.5
    336,           3.,           1.,          0.5
    337,          3.5,           1.,          0.5
    338,           4.,           1.,          0.5
    339,          4.5,           1.,          0.5
    340,           5.,          0.5,          0.5
    341,          0.5,          0.5,          0.5
    342,           1.,          0.5,          0.5
    343,          1.5,          0.5,          0.5
    344,           2.,          0.5,          0.5
    345,          2.5,          0.5,          0.5
    346,           3.,          0.5,          0.5
    347,          3.5,          0.5,          0.5
    348,           4.,          0.5,          0.5
    349,          4.5,          0.5,          0.5
    350,   5.49986839,  0.999626815,          0.5
    351,   1.00092697,   1.49213636,          0.5
    352,   3.99901557, -0.492677093,          0.5
    353, -0.499637216, 0.000194657463,          0.5
    354, -0.499875307, -0.499230474,          0.5
    355, -0.500185132,  0.500081718,          0.5
    356, -0.500605047,   0.99956435,          0.5
    357,   5.49946404, -0.498503298,          0.5
    358,   4.99973631, -0.497575402,          0.5
    359,   4.49976826, -0.496959031,          0.5
    360,   3.49942589, -0.493688136,          0.5
    361,   2.49873686, -0.489890158,          0.5
    362,    1.9994967, -0.493388504,          0.5
    363,   0.99970144, -0.494571447,          0.5
    364,  0.499954373, -0.497571051,          0.5
    365, 2.31583385e-06, -0.499023616,          0.5
    366,   5.49995613,   1.49875164,          0.5
    367,   5.49962902,  0.500002325,          0.5
    368,   5.49986792, 0.000264676317,          0.5
    369, 6.18712147e-05,   1.49678266,          0.5
    370,  0.500182867,   1.49654329,          0.5
    371,   1.50056422,   1.49346924,          0.5
    372,   2.50127769,   1.48988771,          0.5
    373,   3.00055051,   1.49331331,          0.5
    374,    4.0003767,    1.4937185,          0.5
    375,   4.50006819,   1.49685979,          0.5
    376,   5.00002861,   1.49863756,          0.5
    377,   2.00034165,    1.4948113,          0.5
    378,   3.50017381,   1.49595213,          0.5
    379,    2.9996593,  -0.49488014,          0.5
    380,   1.49984932, -0.496241122,          0.5
    381, -0.500178158,     1.498914,          0.5
*Element, type=C3D8R
 1,  42, 157, 308, 139,   1,  17, 137,  20
 2, 157,  52, 148, 308,  17,   2,  18, 137
 3, 139, 308, 166,  25,  20, 137,  19,   4
 4, 308, 148,  51, 166, 137,  18,   3,  19
 5,  41, 158, 309, 140,  42, 157, 308, 139
 6, 158,  53, 149, 309, 157,  52, 148, 308
 7, 140, 309, 167,  26, 139, 308, 166,  25
 8, 309, 149,  50, 167, 308, 148,  51, 166
 9,  40, 159, 310, 141,  41, 158, 309, 140
10, 159,  54, 150, 310, 158,  53, 149, 309
11, 141, 310, 168,  27, 140, 309, 167,  26
12, 310, 150,  49, 168, 309, 149,  50, 167
13,  39, 160, 311, 142,  40, 159, 310, 141
14, 160,  55, 151, 311, 159,  54, 150, 310
15, 142, 311, 169,  28, 141, 310, 168,  27
16, 311, 151,  48, 169, 310, 150,  49, 168
17,  38, 161, 312, 143,  39, 160, 311, 142
18, 161,  56, 152, 312, 160,  55, 151, 311
19, 143, 312, 170,  29, 142, 311, 169,  28
20, 312, 152,  47, 170, 311, 151,  48, 169
21,  37, 162, 313, 144,  38, 161, 312, 143
22, 162,  57, 153, 313, 161,  56, 152, 312
23, 144, 313, 171,  30, 143, 312, 170,  29
24, 313, 153,  46, 171, 312, 152,  47, 170
25,  36, 163, 314, 145,  37, 162, 313, 144
26, 163,  58, 154, 314, 162,  57, 153, 313
27, 145, 314, 172,  31, 144, 313, 171,  30
28, 314, 154,  45, 172, 313, 153,  46, 171
29,  35, 164, 315, 146,  36, 163, 314, 145
30, 164,  59, 155, 315, 163,  58, 154, 314
31, 146, 315, 173,  32, 145, 314, 172,  31
32, 315, 155,  44, 173, 314, 154,  45, 172
33,  34, 165, 316, 147,  35, 164, 315, 146
34, 165,  60, 156, 316, 164,  59, 155, 315
35, 147, 316, 174,  33, 146, 315, 173,  32
36, 316, 156,  43, 174, 315, 155,  44, 173
37,   8,  21, 138,  24,  34, 165, 316, 147
38,  21,   5,  22, 138, 165,  60, 156, 316
39,  24, 138,  23,   7, 147, 316, 174,  33
40, 138,  22,   6,  23, 316, 156,  43, 174
 41,  25,   4,  19, 166, 329, 318, 330, 341
 42, 166,  19,   3,  51, 341, 330, 319, 331
 43,  26,  25, 166, 167, 328, 329, 341, 342
 44, 167, 166,  51,  50, 342, 341, 331, 332
 45,  27,  26, 167, 168, 327, 328, 342, 343
 46, 168, 167,  50,  49, 343, 342, 332, 333
 47,  28,  27, 168, 169, 326, 327, 343, 344
 48, 169, 168,  49,  48, 344, 343, 333, 334
 49,  29,  28, 169, 170, 325, 326, 344, 345
 50, 170, 169,  48,  47, 345, 344, 334, 335
 51,  30,  29, 170, 171, 324, 325, 345, 346
 52, 171, 170,  47,  46, 346, 345, 335, 336
 53,  31,  30, 171, 172, 323, 324, 346, 347
 54, 172, 171,  46,  45, 347, 346, 336, 337
 55,  32,  31, 172, 173, 322, 323, 347, 348
 56, 173, 172,  45,  44, 348, 347, 337, 338
 57,  33,  32, 173, 174, 321, 322, 348, 349
 58, 174, 173,  44,  43, 349, 348, 338, 339
 59,   7,  33, 174,  23, 317, 321, 349, 340
 60,  23, 174,  43,   6, 340, 349, 339, 320
 61, 182, 193,  80,  79, 357, 368, 306, 307
 62, 192, 175,  82,  81, 367, 350, 304, 305
 63, 191, 201,  85,  84, 366, 376, 288, 289
 64, 202,  48,  49, 196, 377, 334, 333, 371
 65,   3, 181, 206, 194, 319, 356, 381, 369
 66, 179, 190,  67,  66, 354, 365, 301, 302
 67, 204,  30,  31, 185, 379, 324, 323, 360
 68, 180, 178,  64,  63, 355, 353, 273, 274
 69, 179,  66,  10,  65, 354, 302,  98, 272
 70,  65,  64, 178, 179, 272, 273, 353, 354
 71,  63,  62, 181, 180, 274, 275, 356, 355
 72, 182,  79,  11,  78, 357, 307, 100, 290
 73, 183, 182,  78,  77, 358, 357, 290, 291
 74, 193, 182, 183,   7, 368, 357, 358, 317
 75,   7, 183, 184,  33, 317, 358, 359, 321
 76,  33, 184, 177,  32, 321, 359, 352, 322
 77,  77,  76, 184, 183, 291, 292, 359, 358
 78,  32, 177, 185,  31, 322, 352, 360, 323
 79, 187,  28,  29, 186, 362, 326, 325, 361
 80, 189,  25,  26, 188, 364, 329, 328, 363
 81,  69,  68, 189, 188, 299, 300, 364, 363
 82,  25, 189, 190,   4, 329, 364, 365, 318
 83, 191,  84,  12,  83, 366, 289,  99, 303
 84,  83,  82, 175, 191, 303, 304, 350, 366
 85,  23, 192, 193,   7, 340, 367, 368, 317
 86,  96, 206,  61,   9, 277, 381, 276,  97
 87,  96,  95, 194, 206, 277, 278, 369, 381
 88, 195, 194,  95,  94, 370, 369, 278, 279
 89, 195,  51,   3, 194, 370, 331, 319, 369
 90,  51, 195, 176,  50, 331, 370, 351, 332
 91,  50, 176, 196,  49, 332, 351, 371, 333
 92, 198,  46,  47, 197, 373, 336, 335, 372
 93, 200,  43,  44, 199, 375, 339, 338, 374
 94,  87,  86, 200, 199, 286, 287, 375, 374
 95,  43, 200, 201,   6, 339, 375, 376, 320
 96,   4, 178, 180,  19, 318, 353, 355, 330
 97,  93,  92, 196, 176, 280, 281, 371, 351
 98,  91,  90, 197, 202, 282, 283, 372, 377
 99,  48, 202, 197,  47, 334, 377, 372, 335
100, 203,  45,  46, 198, 378, 337, 336, 373
101,  90,  89, 198, 197, 283, 284, 373, 372
102,  88,  87, 199, 203, 285, 286, 374, 378
103,  45, 203, 199,  44, 337, 378, 374, 338
104,   6, 175, 192,  23, 320, 350, 367, 340
105,  75,  74, 185, 177, 293, 294, 360, 352
106,  73,  72, 186, 204, 295, 296, 361, 379
107,  30, 204, 186,  29, 324, 379, 361, 325
108, 205,  27,  28, 187, 380, 327, 326, 362
109,  72,  71, 187, 186, 296, 297, 362, 361
110,  70,  69, 188, 205, 298, 299, 363, 380
111,  27, 205, 188,  26, 327, 380, 363, 328
112, 181,   3,  19, 180, 356, 319, 330, 355
113, 190, 179, 178,   4, 365, 354, 353, 318
114, 206, 181,  62,  61, 381, 356, 275, 276
115,  76,  75, 177, 184, 292, 293, 352, 359
116, 204, 185,  74,  73, 379, 360, 294, 295
117, 205, 187,  71,  70, 380, 362, 297, 298
118,  67, 190, 189,  68, 301, 365, 364, 300
119, 201, 191, 175,   6, 376, 366, 350, 320
120,  80, 193, 192,  81, 306, 368, 367, 305
121,  94,  93, 176, 195, 279, 280, 351, 370
122, 202, 196,  92,  91, 377, 371, 281, 282
123, 203, 198,  89,  88, 378, 373, 284, 285
124,  85, 201, 200,  86, 288, 376, 375, 287
125, 329, 318, 330, 341, 219, 208, 220, 231
126, 341, 330, 319, 331, 231, 220, 209, 221
127, 328, 329, 341, 342, 218, 219, 231, 232
128, 342, 341, 331, 332, 232, 231, 221, 222
129, 327, 328, 342, 343, 217, 218, 232, 233
130, 343, 342, 332, 333, 233, 232, 222, 223
131, 326, 327, 343, 344, 216, 217, 233, 234
132, 344, 343, 333, 334, 234, 233, 223, 224
133, 325, 326, 344, 345, 215, 216, 234, 235
134, 345, 344, 334, 335, 235, 234, 224, 225
135, 324, 325, 345, 346, 214, 215, 235, 236
136, 346, 345, 335, 336, 236, 235, 225, 226
137, 323, 324, 346, 347, 213, 214, 236, 237
138, 347, 346, 336, 337, 237, 236, 226, 227
139, 322, 323, 347, 348, 212, 213, 237, 238
140, 348, 347, 337, 338, 238, 237, 227, 228
141, 321, 322, 348, 349, 211, 212, 238, 239
142, 349, 348, 338, 339, 239, 238, 228, 229
143, 317, 321, 349, 340, 207, 211, 239, 230
144, 340, 349, 339, 320, 230, 239, 229, 210
145, 357, 368, 306, 307, 247, 258, 135, 136
146, 367, 350, 304, 305, 257, 240, 133, 134
147, 366, 376, 288, 289, 256, 266, 130, 131
148, 377, 334, 333, 371, 267, 224, 223, 261
149, 319, 356, 381, 369, 209, 246, 271, 259
150, 354, 365, 301, 302, 244, 255, 112, 113
151, 379, 324, 323, 360, 269, 214, 213, 250
152, 355, 353, 273, 274, 245, 243, 115, 116
153, 354, 302,  98, 272, 244, 113,  14, 114
154, 272, 273, 353, 354, 114, 115, 243, 244
155, 274, 275, 356, 355, 116, 117, 246, 245
156, 357, 307, 100, 290, 247, 136,  13, 101
157, 358, 357, 290, 291, 248, 247, 101, 102
158, 368, 357, 358, 317, 258, 247, 248, 207
159, 317, 358, 359, 321, 207, 248, 249, 211
160, 321, 359, 352, 322, 211, 249, 242, 212
161, 291, 292, 359, 358, 102, 103, 249, 248
162, 322, 352, 360, 323, 212, 242, 250, 213
163, 362, 326, 325, 361, 252, 216, 215, 251
164, 364, 329, 328, 363, 254, 219, 218, 253
165, 299, 300, 364, 363, 110, 111, 254, 253
166, 329, 364, 365, 318, 219, 254, 255, 208
167, 366, 289,  99, 303, 256, 131,  16, 132
168, 303, 304, 350, 366, 132, 133, 240, 256
169, 340, 367, 368, 317, 230, 257, 258, 207
170, 277, 381, 276,  97, 119, 271, 118,  15
171, 277, 278, 369, 381, 119, 120, 259, 271
172, 370, 369, 278, 279, 260, 259, 120, 121
173, 370, 331, 319, 369, 260, 221, 209, 259
174, 331, 370, 351, 332, 221, 260, 241, 222
175, 332, 351, 371, 333, 222, 241, 261, 223
176, 373, 336, 335, 372, 263, 226, 225, 262
177, 375, 339, 338, 374, 265, 229, 228, 264
178, 286, 287, 375, 374, 128, 129, 265, 264
179, 339, 375, 376, 320, 229, 265, 266, 210
180, 318, 353, 355, 330, 208, 243, 245, 220
181, 280, 281, 371, 351, 122, 123, 261, 241
182, 282, 283, 372, 377, 124, 125, 262, 267
183, 334, 377, 372, 335, 224, 267, 262, 225
184, 378, 337, 336, 373, 268, 227, 226, 263
185, 283, 284, 373, 372, 125, 126, 263, 262
186, 285, 286, 374, 378, 127, 128, 264, 268
187, 337, 378, 374, 338, 227, 268, 264, 228
188, 320, 350, 367, 340, 210, 240, 257, 230
189, 293, 294, 360, 352, 104, 105, 250, 242
190, 295, 296, 361, 379, 106, 107, 251, 269
191, 324, 379, 361, 325, 214, 269, 251, 215
192, 380, 327, 326, 362, 270, 217, 216, 252
193, 296, 297, 362, 361, 107, 108, 252, 251
194, 298, 299, 363, 380, 109, 110, 253, 270
195, 327, 380, 363, 328, 217, 270, 253, 218
196, 356, 319, 330, 355, 246, 209, 220, 245
197, 365, 354, 353, 318, 255, 244, 243, 208
198, 381, 356, 275, 276, 271, 246, 117, 118
199, 292, 293, 352, 359, 103, 104, 242, 249
200, 379, 360, 294, 295, 269, 250, 105, 106
201, 380, 362, 297, 298, 270, 252, 108, 109
202, 301, 365, 364, 300, 112, 255, 254, 111
203, 376, 366, 350, 320, 266, 256, 240, 210
204, 306, 368, 367, 305, 135, 258, 257, 134
205, 279, 280, 351, 370, 121, 122, 241, 260
206, 377, 371, 281, 282, 267, 261, 123, 124
207, 378, 373, 284, 285, 268, 263, 126, 127
208, 288, 376, 375, 287, 130, 266, 265, 129
*End Part
**  
**
** ASSEMBLY
**
*Assembly, name=Assembly
**  
*Instance, name=Part-3-1, part=Part-3
*End Instance
**  
*End Assembly
