*Heading
** Job name: stml Model name: Model-1
** Generated by: Abaqus/CAE 2023
*Preprint, echo=NO, model=NO, history=NO, contact=NO
**
** PARTS
**
*Part, name=Part-1
*Node
      1,           0.,           0.,           4.
      2,           0.,           1.,           4.
      3,           0.,           1.,           1.
      4,           0.,           0.,           1.
      5,           5.,           1.,           4.
      6,           5.,           1.,           1.
      7,           5.,           0.,           1.
      8,           5.,           0.,           4.
      9,          -1.,           2.,           1.
     10,          -1.,          -1.,           1.
     11,           6.,          -1.,           1.
     12,           6.,           2.,           1.
     13,           6.,          -1.,           0.
     14,          -1.,          -1.,           0.
     15,          -1.,           2.,           0.
     16,           6.,           2.,           0.
     17,           0.,          0.5,           4.
     18,           0.,           1.,          3.5
     19,           0.,           1.,           3.
     20,           0.,           1.,          2.5
     21,           0.,           1.,           2.
     22,           0.,           1.,          1.5
     23,           0.,          0.5,           1.
     24,           0.,           0.,          1.5
     25,           0.,           0.,           2.
     26,           0.,           0.,          2.5
     27,           0.,           0.,           3.
     28,           0.,           0.,          3.5
     29,           5.,          0.5,           4.
     30,           5.,           1.,          1.5
     31,           5.,           1.,           2.
     32,           5.,           1.,          2.5
     33,           5.,           1.,           3.
     34,           5.,           1.,          3.5
     35,           5.,          0.5,           1.
     36,           5.,           0.,          3.5
     37,           5.,           0.,           3.
     38,           5.,           0.,          2.5
     39,           5.,           0.,           2.
     40,           5.,           0.,          1.5
     41,          0.5,           0.,           1.
     42,           1.,           0.,           1.
     43,          1.5,           0.,           1.
     44,           2.,           0.,           1.
     45,          2.5,           0.,           1.
     46,           3.,           0.,           1.
     47,          3.5,           0.,           1.
     48,           4.,           0.,           1.
     49,          4.5,           0.,           1.
     50,          4.5,           0.,           4.
     51,           4.,           0.,           4.
     52,          3.5,           0.,           4.
     53,           3.,           0.,           4.
     54,          2.5,           0.,           4.
     55,           2.,           0.,           4.
     56,          1.5,           0.,           4.
     57,           1.,           0.,           4.
     58,          0.5,           0.,           4.
     59,          4.5,           1.,           1.
     60,           4.,           1.,           1.
     61,          3.5,           1.,           1.
     62,           3.,           1.,           1.
     63,          2.5,           1.,           1.
     64,           2.,           1.,           1.
     65,          1.5,           1.,           1.
     66,           1.,           1.,           1.
     67,          0.5,           1.,           1.
     68,          0.5,           1.,           4.
     69,           1.,           1.,           4.
     70,          1.5,           1.,           4.
     71,           2.,           1.,           4.
     72,          2.5,           1.,           4.
     73,           3.,           1.,           4.
     74,          3.5,           1.,           4.
     75,           4.,           1.,           4.
     76,          4.5,           1.,           4.
     77,          -1.,          1.5,           1.
     78,          -1.,           1.,           1.
     79,          -1.,          0.5,           1.
     80,          -1.,           0.,           1.
     81,          -1.,         -0.5,           1.
     82,         -0.5,          -1.,           1.
     83,           0.,          -1.,           1.
     84,          0.5,          -1.,           1.
     85,           1.,          -1.,           1.
     86,          1.5,          -1.,           1.
     87,           2.,          -1.,           1.
     88,          2.5,          -1.,           1.
     89,           3.,          -1.,           1.
     90,          3.5,          -1.,           1.
     91,           4.,          -1.,           1.
     92,          4.5,          -1.,           1.
     93,           5.,          -1.,           1.
     94,          5.5,          -1.,           1.
     95,           6.,         -0.5,           1.
     96,           6.,           0.,           1.
     97,           6.,          0.5,           1.
     98,           6.,           1.,           1.
     99,           6.,          1.5,           1.
    100,          5.5,           2.,           1.
    101,           5.,           2.,           1.
    102,          4.5,           2.,           1.
    103,           4.,           2.,           1.
    104,          3.5,           2.,           1.
    105,           3.,           2.,           1.
    106,          2.5,           2.,           1.
    107,           2.,           2.,           1.
    108,          1.5,           2.,           1.
    109,           1.,           2.,           1.
    110,          0.5,           2.,           1.
    111,           0.,           2.,           1.
    112,         -0.5,           2.,           1.
    113,          -1.,           2.,          0.5
    114,          -1.,          -1.,          0.5
    115,           6.,           2.,          0.5
    116,           6.,          -1.,          0.5
    117,          5.5,          -1.,           0.
    118,           5.,          -1.,           0.
    119,          4.5,          -1.,           0.
    120,           4.,          -1.,           0.
    121,          3.5,          -1.,           0.
    122,           3.,          -1.,           0.
    123,          2.5,          -1.,           0.
    124,           2.,          -1.,           0.
    125,          1.5,          -1.,           0.
    126,           1.,          -1.,           0.
    127,          0.5,          -1.,           0.
    128,           0.,          -1.,           0.
    129,         -0.5,          -1.,           0.
    130,          -1.,         -0.5,           0.
    131,          -1.,           0.,           0.
    132,          -1.,          0.5,           0.
    133,          -1.,           1.,           0.
    134,          -1.,          1.5,           0.
    135,         -0.5,           2.,           0.
    136,           0.,           2.,           0.
    137,          0.5,           2.,           0.
    138,           1.,           2.,           0.
    139,          1.5,           2.,           0.
    140,           2.,           2.,           0.
    141,          2.5,           2.,           0.
    142,           3.,           2.,           0.
    143,          3.5,           2.,           0.
    144,           4.,           2.,           0.
    145,          4.5,           2.,           0.
    146,           5.,           2.,           0.
    147,          5.5,           2.,           0.
    148,           6.,          1.5,           0.
    149,           6.,           1.,           0.
    150,           6.,          0.5,           0.
    151,           6.,           0.,           0.
    152,           6.,         -0.5,           0.
    153,           0.,          0.5,          3.5
    154,           0.,          0.5,           3.
    155,           0.,          0.5,          2.5
    156,           0.,          0.5,           2.
    157,           0.,          0.5,          1.5
    158,           5.,          0.5,          3.5
    159,           5.,          0.5,           3.
    160,           5.,          0.5,          2.5
    161,           5.,          0.5,           2.
    162,           5.,          0.5,          1.5
    163,          0.5,           0.,          3.5
    164,          0.5,           0.,           3.
    165,          0.5,           0.,          2.5
    166,          0.5,           0.,           2.
    167,          0.5,           0.,          1.5
    168,           1.,           0.,          3.5
    169,           1.,           0.,           3.
    170,           1.,           0.,          2.5
    171,           1.,           0.,           2.
    172,           1.,           0.,          1.5
    173,          1.5,           0.,          3.5
    174,          1.5,           0.,           3.
    175,          1.5,           0.,          2.5
    176,          1.5,           0.,           2.
    177,          1.5,           0.,          1.5
    178,           2.,           0.,          3.5
    179,           2.,           0.,           3.
    180,           2.,           0.,          2.5
    181,           2.,           0.,           2.
    182,           2.,           0.,          1.5
    183,          2.5,           0.,          3.5
    184,          2.5,           0.,           3.
    185,          2.5,           0.,          2.5
    186,          2.5,           0.,           2.
    187,          2.5,           0.,          1.5
    188,           3.,           0.,          3.5
    189,           3.,           0.,           3.
    190,           3.,           0.,          2.5
    191,           3.,           0.,           2.
    192,           3.,           0.,          1.5
    193,          3.5,           0.,          3.5
    194,          3.5,           0.,           3.
    195,          3.5,           0.,          2.5
    196,          3.5,           0.,           2.
    197,          3.5,           0.,          1.5
    198,           4.,           0.,          3.5
    199,           4.,           0.,           3.
    200,           4.,           0.,          2.5
    201,           4.,           0.,           2.
    202,           4.,           0.,          1.5
    203,          4.5,           0.,          3.5
    204,          4.5,           0.,           3.
    205,          4.5,           0.,          2.5
    206,          4.5,           0.,           2.
    207,          4.5,           0.,          1.5
    208,          0.5,           1.,          3.5
    209,          0.5,           1.,           3.
    210,          0.5,           1.,          2.5
    211,          0.5,           1.,           2.
    212,          0.5,           1.,          1.5
    213,           1.,           1.,          3.5
    214,           1.,           1.,           3.
    215,           1.,           1.,          2.5
    216,           1.,           1.,           2.
    217,           1.,           1.,          1.5
    218,          1.5,           1.,          3.5
    219,          1.5,           1.,           3.
    220,          1.5,           1.,          2.5
    221,          1.5,           1.,           2.
    222,          1.5,           1.,          1.5
    223,           2.,           1.,          3.5
    224,           2.,           1.,           3.
    225,           2.,           1.,          2.5
    226,           2.,           1.,           2.
    227,           2.,           1.,          1.5
    228,          2.5,           1.,          3.5
    229,          2.5,           1.,           3.
    230,          2.5,           1.,          2.5
    231,          2.5,           1.,           2.
    232,          2.5,           1.,          1.5
    233,           3.,           1.,          3.5
    234,           3.,           1.,           3.
    235,           3.,           1.,          2.5
    236,           3.,           1.,           2.
    237,           3.,           1.,          1.5
    238,          3.5,           1.,          3.5
    239,          3.5,           1.,           3.
    240,          3.5,           1.,          2.5
    241,          3.5,           1.,           2.
    242,          3.5,           1.,          1.5
    243,           4.,           1.,          3.5
    244,           4.,           1.,           3.
    245,           4.,           1.,          2.5
    246,           4.,           1.,           2.
    247,           4.,           1.,          1.5
    248,          4.5,           1.,          3.5
    249,          4.5,           1.,           3.
    250,          4.5,           1.,          2.5
    251,          4.5,           1.,           2.
    252,          4.5,           1.,          1.5
    253,          0.5,          0.5,           4.
    254,           1.,          0.5,           4.
    255,          1.5,          0.5,           4.
    256,           2.,          0.5,           4.
    257,          2.5,          0.5,           4.
    258,           3.,          0.5,           4.
    259,          3.5,          0.5,           4.
    260,           4.,          0.5,           4.
    261,          4.5,          0.5,           4.
    262,          0.5,          0.5,           1.
    263,           1.,          0.5,           1.
    264,          1.5,          0.5,           1.
    265,           2.,          0.5,           1.
    266,          2.5,          0.5,           1.
    267,           3.,          0.5,           1.
    268,          3.5,          0.5,           1.
    269,           4.,          0.5,           1.
    270,          4.5,          0.5,           1.
    271,   5.49929523,  0.999523342,           1.
    272,   5.49942446,  0.500012815,           1.
    273,   4.99885035, -0.494649082,           1.
    274,   4.49899197, -0.493320167,           1.
    275, -0.499683261, 0.000196245004,           1.
    276,   0.50078553,   1.49261713,           1.
    277, -0.500260592,  0.500080287,           1.
    278,   1.00094378,   1.49229467,           1.
    279,   1.50098419,   1.49217188,           1.
    280,   2.00099087,   1.49213982,           1.
    281,   2.50097847,   1.49220824,           1.
    282,   3.00089264,   1.49277675,           1.
    283,   3.50039601,   1.49487245,           1.
    284,   4.00002909,   1.49641538,           1.
    285,    4.4999814,   1.49794042,           1.
    286,   3.99901915, -0.492625654,           1.
    287,   3.49902725,  -0.49230963,           1.
    288,   2.99903488, -0.492144227,           1.
    289,   2.49905062, -0.492148668,           1.
    290,   1.99913883, -0.492731035,           1.
    291,    1.4998368, -0.495199353,           1.
    292,   1.00004733, -0.497310221,           1.
    293,   0.50003922, -0.498666078,           1.
    294, -0.499870449, -0.499469221,           1.
    295, -0.500603557,  0.999591172,           1.
    296,   5.49942923, -0.498227715,           1.
    297, 1.92575972e-05, -0.499437243,           1.
    298,   5.49975586,   1.49896967,           1.
    299,   5.49997663, 0.000261892914,           1.
    300, 6.05608475e-05,    1.4969337,           1.
    301,   4.99998093,   1.49907887,           1.
    302,  -0.50017792,    1.4989661,           1.
    303,           0.,           1.,           0.
    304,           0.,           0.,           0.
    305,           5.,           0.,           0.
    306,           5.,           1.,           0.
    307,           0.,          0.5,           0.
    308,          0.5,           0.,           0.
    309,           1.,           0.,           0.
    310,          1.5,           0.,           0.
    311,           2.,           0.,           0.
    312,          2.5,           0.,           0.
    313,           3.,           0.,           0.
    314,          3.5,           0.,           0.
    315,           4.,           0.,           0.
    316,          4.5,           0.,           0.
    317,           5.,          0.5,           0.
    318,          4.5,           1.,           0.
    319,           4.,           1.,           0.
    320,          3.5,           1.,           0.
    321,           3.,           1.,           0.
    322,          2.5,           1.,           0.
    323,           2.,           1.,           0.
    324,          1.5,           1.,           0.
    325,           1.,           1.,           0.
    326,          0.5,           1.,           0.
    327,          0.5,          0.5,           0.
    328,           1.,          0.5,           0.
    329,          1.5,          0.5,           0.
    330,           2.,          0.5,           0.
    331,          2.5,          0.5,           0.
    332,           3.,          0.5,           0.
    333,          3.5,          0.5,           0.
    334,           4.,          0.5,           0.
    335,          4.5,          0.5,           0.
    336,   5.49929523,  0.999523342,           0.
    337,   5.49942446,  0.500012815,           0.
    338,   4.99885035, -0.494649082,           0.
    339,   4.49899197, -0.493320167,           0.
    340, -0.499683261, 0.000196245004,           0.
    341,   0.50078553,   1.49261713,           0.
    342, -0.500260592,  0.500080287,           0.
    343,   1.00094378,   1.49229467,           0.
    344,   1.50098419,   1.49217188,           0.
    345,   2.00099087,   1.49213982,           0.
    346,   2.50097847,   1.49220824,           0.
    347,   3.00089264,   1.49277675,           0.
    348,   3.50039601,   1.49487245,           0.
    349,   4.00002909,   1.49641538,           0.
    350,    4.4999814,   1.49794042,           0.
    351,   3.99901915, -0.492625654,           0.
    352,   3.49902725,  -0.49230963,           0.
    353,   2.99903488, -0.492144227,           0.
    354,   2.49905062, -0.492148668,           0.
    355,   1.99913883, -0.492731035,           0.
    356,    1.4998368, -0.495199353,           0.
    357,   1.00004733, -0.497310221,           0.
    358,   0.50003922, -0.498666078,           0.
    359, -0.499870449, -0.499469221,           0.
    360, -0.500603557,  0.999591172,           0.
    361,   5.49942923, -0.498227715,           0.
    362, 1.92575972e-05, -0.499437243,           0.
    363,   5.49975586,   1.49896967,           0.
    364,   5.49997663, 0.000261892914,           0.
    365, 6.05608475e-05,    1.4969337,           0.
    366,   4.99998093,   1.49907887,           0.
    367,  -0.50017792,    1.4989661,           0.
    368,          -1.,         -0.5,          0.5
    369,          -1.,           0.,          0.5
    370,          -1.,          0.5,          0.5
    371,          -1.,           1.,          0.5
    372,          -1.,          1.5,          0.5
    373,         -0.5,           2.,          0.5
    374,           0.,           2.,          0.5
    375,          0.5,           2.,          0.5
    376,           1.,           2.,          0.5
    377,          1.5,           2.,          0.5
    378,           2.,           2.,          0.5
    379,          2.5,           2.,          0.5
    380,           3.,           2.,          0.5
    381,          3.5,           2.,          0.5
    382,           4.,           2.,          0.5
    383,          4.5,           2.,          0.5
    384,           5.,           2.,          0.5
    385,          5.5,           2.,          0.5
    386,          5.5,          -1.,          0.5
    387,           5.,          -1.,          0.5
    388,          4.5,          -1.,          0.5
    389,           4.,          -1.,          0.5
    390,          3.5,          -1.,          0.5
    391,           3.,          -1.,          0.5
    392,          2.5,          -1.,          0.5
    393,           2.,          -1.,          0.5
    394,          1.5,          -1.,          0.5
    395,           1.,          -1.,          0.5
    396,          0.5,          -1.,          0.5
    397,           0.,          -1.,          0.5
    398,         -0.5,          -1.,          0.5
    399,           6.,          1.5,          0.5
    400,           6.,           1.,          0.5
    401,           6.,          0.5,          0.5
    402,           6.,           0.,          0.5
    403,           6.,         -0.5,          0.5
    404,          0.5,          0.5,          3.5
    405,          0.5,          0.5,           3.
    406,          0.5,          0.5,          2.5
    407,          0.5,          0.5,           2.
    408,          0.5,          0.5,          1.5
    409,           1.,          0.5,          3.5
    410,           1.,          0.5,           3.
    411,           1.,          0.5,          2.5
    412,           1.,          0.5,           2.
    413,           1.,          0.5,          1.5
    414,          1.5,          0.5,          3.5
    415,          1.5,          0.5,           3.
    416,          1.5,          0.5,          2.5
    417,          1.5,          0.5,           2.
    418,          1.5,          0.5,          1.5
    419,           2.,          0.5,          3.5
    420,           2.,          0.5,           3.
    421,           2.,          0.5,          2.5
    422,           2.,          0.5,           2.
    423,           2.,          0.5,          1.5
    424,          2.5,          0.5,          3.5
    425,          2.5,          0.5,           3.
    426,          2.5,          0.5,          2.5
    427,          2.5,          0.5,           2.
    428,          2.5,          0.5,          1.5
    429,           3.,          0.5,          3.5
    430,           3.,          0.5,           3.
    431,           3.,          0.5,          2.5
    432,           3.,          0.5,           2.
    433,           3.,          0.5,          1.5
    434,          3.5,          0.5,          3.5
    435,          3.5,          0.5,           3.
    436,          3.5,          0.5,          2.5
    437,          3.5,          0.5,           2.
    438,          3.5,          0.5,          1.5
    439,           4.,          0.5,          3.5
    440,           4.,          0.5,           3.
    441,           4.,          0.5,          2.5
    442,           4.,          0.5,           2.
    443,           4.,          0.5,          1.5
    444,          4.5,          0.5,          3.5
    445,          4.5,          0.5,           3.
    446,          4.5,          0.5,          2.5
    447,          4.5,          0.5,           2.
    448,          4.5,          0.5,          1.5
    449,           0.,           1.,          0.5
    450,           0.,           0.,          0.5
    451,           5.,           0.,          0.5
    452,           5.,           1.,          0.5
    453,           0.,          0.5,          0.5
    454,          0.5,           0.,          0.5
    455,           1.,           0.,          0.5
    456,          1.5,           0.,          0.5
    457,           2.,           0.,          0.5
    458,          2.5,           0.,          0.5
    459,           3.,           0.,          0.5
    460,          3.5,           0.,          0.5
    461,           4.,           0.,          0.5
    462,          4.5,           0.,          0.5
    463,           5.,          0.5,          0.5
    464,          4.5,           1.,          0.5
    465,           4.,           1.,          0.5
    466,          3.5,           1.,          0.5
    467,           3.,           1.,          0.5
    468,          2.5,           1.,          0.5
    469,           2.,           1.,          0.5
    470,          1.5,           1.,          0.5
    471,           1.,           1.,          0.5
    472,          0.5,           1.,          0.5
    473,          0.5,          0.5,          0.5
    474,           1.,          0.5,          0.5
    475,          1.5,          0.5,          0.5
    476,           2.,          0.5,          0.5
    477,          2.5,          0.5,          0.5
    478,           3.,          0.5,          0.5
    479,          3.5,          0.5,          0.5
    480,           4.,          0.5,          0.5
    481,          4.5,          0.5,          0.5
    482,   5.49929523,  0.999523342,          0.5
    483,   5.49942446,  0.500012815,          0.5
    484,   4.99885035, -0.494649082,          0.5
    485,   4.49899197, -0.493320167,          0.5
    486, -0.499683261, 0.000196245004,          0.5
    487,   0.50078553,   1.49261713,          0.5
    488, -0.500260592,  0.500080287,          0.5
    489,   1.00094378,   1.49229467,          0.5
    490,   1.50098419,   1.49217188,          0.5
    491,   2.00099087,   1.49213982,          0.5
    492,   2.50097847,   1.49220824,          0.5
    493,   3.00089264,   1.49277675,          0.5
    494,   3.50039601,   1.49487245,          0.5
    495,   4.00002909,   1.49641538,          0.5
    496,    4.4999814,   1.49794042,          0.5
    497,   3.99901915, -0.492625654,          0.5
    498,   3.49902725,  -0.49230963,          0.5
    499,   2.99903488, -0.492144227,          0.5
    500,   2.49905062, -0.492148668,          0.5
    501,   1.99913883, -0.492731035,          0.5
    502,    1.4998368, -0.495199353,          0.5
    503,   1.00004733, -0.497310221,          0.5
    504,   0.50003922, -0.498666078,          0.5
    505, -0.499870449, -0.499469221,          0.5
    506, -0.500603557,  0.999591172,          0.5
    507,   5.49942923, -0.498227715,          0.5
    508, 1.92575972e-05, -0.499437243,          0.5
    509,   5.49975586,   1.49896967,          0.5
    510,   5.49997663, 0.000261892914,          0.5
    511, 6.05608475e-05,    1.4969337,          0.5
    512,   4.99998093,   1.49907887,          0.5
    513,  -0.50017792,    1.4989661,          0.5
*Element, type=C3D8R
  1,  58, 253, 404, 163,   1,  17, 153,  28
  2, 253,  68, 208, 404,  17,   2,  18, 153
  3, 163, 404, 405, 164,  28, 153, 154,  27
  4, 404, 208, 209, 405, 153,  18,  19, 154
  5, 164, 405, 406, 165,  27, 154, 155,  26
  6, 405, 209, 210, 406, 154,  19,  20, 155
  7, 165, 406, 407, 166,  26, 155, 156,  25
  8, 406, 210, 211, 407, 155,  20,  21, 156
  9, 166, 407, 408, 167,  25, 156, 157,  24
 10, 407, 211, 212, 408, 156,  21,  22, 157
 11, 167, 408, 262,  41,  24, 157,  23,   4
 12, 408, 212,  67, 262, 157,  22,   3,  23
 13,  57, 254, 409, 168,  58, 253, 404, 163
 14, 254,  69, 213, 409, 253,  68, 208, 404
 15, 168, 409, 410, 169, 163, 404, 405, 164
 16, 409, 213, 214, 410, 404, 208, 209, 405
 17, 169, 410, 411, 170, 164, 405, 406, 165
 18, 410, 214, 215, 411, 405, 209, 210, 406
 19, 170, 411, 412, 171, 165, 406, 407, 166
 20, 411, 215, 216, 412, 406, 210, 211, 407
 21, 171, 412, 413, 172, 166, 407, 408, 167
 22, 412, 216, 217, 413, 407, 211, 212, 408
 23, 172, 413, 263,  42, 167, 408, 262,  41
 24, 413, 217,  66, 263, 408, 212,  67, 262
 25,  56, 255, 414, 173,  57, 254, 409, 168
 26, 255,  70, 218, 414, 254,  69, 213, 409
 27, 173, 414, 415, 174, 168, 409, 410, 169
 28, 414, 218, 219, 415, 409, 213, 214, 410
 29, 174, 415, 416, 175, 169, 410, 411, 170
 30, 415, 219, 220, 416, 410, 214, 215, 411
 31, 175, 416, 417, 176, 170, 411, 412, 171
 32, 416, 220, 221, 417, 411, 215, 216, 412
 33, 176, 417, 418, 177, 171, 412, 413, 172
 34, 417, 221, 222, 418, 412, 216, 217, 413
 35, 177, 418, 264,  43, 172, 413, 263,  42
 36, 418, 222,  65, 264, 413, 217,  66, 263
 37,  55, 256, 419, 178,  56, 255, 414, 173
 38, 256,  71, 223, 419, 255,  70, 218, 414
 39, 178, 419, 420, 179, 173, 414, 415, 174
 40, 419, 223, 224, 420, 414, 218, 219, 415
 41, 179, 420, 421, 180, 174, 415, 416, 175
 42, 420, 224, 225, 421, 415, 219, 220, 416
 43, 180, 421, 422, 181, 175, 416, 417, 176
 44, 421, 225, 226, 422, 416, 220, 221, 417
 45, 181, 422, 423, 182, 176, 417, 418, 177
 46, 422, 226, 227, 423, 417, 221, 222, 418
 47, 182, 423, 265,  44, 177, 418, 264,  43
 48, 423, 227,  64, 265, 418, 222,  65, 264
 49,  54, 257, 424, 183,  55, 256, 419, 178
 50, 257,  72, 228, 424, 256,  71, 223, 419
 51, 183, 424, 425, 184, 178, 419, 420, 179
 52, 424, 228, 229, 425, 419, 223, 224, 420
 53, 184, 425, 426, 185, 179, 420, 421, 180
 54, 425, 229, 230, 426, 420, 224, 225, 421
 55, 185, 426, 427, 186, 180, 421, 422, 181
 56, 426, 230, 231, 427, 421, 225, 226, 422
 57, 186, 427, 428, 187, 181, 422, 423, 182
 58, 427, 231, 232, 428, 422, 226, 227, 423
 59, 187, 428, 266,  45, 182, 423, 265,  44
 60, 428, 232,  63, 266, 423, 227,  64, 265
 61,  53, 258, 429, 188,  54, 257, 424, 183
 62, 258,  73, 233, 429, 257,  72, 228, 424
 63, 188, 429, 430, 189, 183, 424, 425, 184
 64, 429, 233, 234, 430, 424, 228, 229, 425
 65, 189, 430, 431, 190, 184, 425, 426, 185
 66, 430, 234, 235, 431, 425, 229, 230, 426
 67, 190, 431, 432, 191, 185, 426, 427, 186
 68, 431, 235, 236, 432, 426, 230, 231, 427
 69, 191, 432, 433, 192, 186, 427, 428, 187
 70, 432, 236, 237, 433, 427, 231, 232, 428
 71, 192, 433, 267,  46, 187, 428, 266,  45
 72, 433, 237,  62, 267, 428, 232,  63, 266
 73,  52, 259, 434, 193,  53, 258, 429, 188
 74, 259,  74, 238, 434, 258,  73, 233, 429
 75, 193, 434, 435, 194, 188, 429, 430, 189
 76, 434, 238, 239, 435, 429, 233, 234, 430
 77, 194, 435, 436, 195, 189, 430, 431, 190
 78, 435, 239, 240, 436, 430, 234, 235, 431
 79, 195, 436, 437, 196, 190, 431, 432, 191
 80, 436, 240, 241, 437, 431, 235, 236, 432
 81, 196, 437, 438, 197, 191, 432, 433, 192
 82, 437, 241, 242, 438, 432, 236, 237, 433
 83, 197, 438, 268,  47, 192, 433, 267,  46
 84, 438, 242,  61, 268, 433, 237,  62, 267
 85,  51, 260, 439, 198,  52, 259, 434, 193
 86, 260,  75, 243, 439, 259,  74, 238, 434
 87, 198, 439, 440, 199, 193, 434, 435, 194
 88, 439, 243, 244, 440, 434, 238, 239, 435
 89, 199, 440, 441, 200, 194, 435, 436, 195
 90, 440, 244, 245, 441, 435, 239, 240, 436
 91, 200, 441, 442, 201, 195, 436, 437, 196
 92, 441, 245, 246, 442, 436, 240, 241, 437
 93, 201, 442, 443, 202, 196, 437, 438, 197
 94, 442, 246, 247, 443, 437, 241, 242, 438
 95, 202, 443, 269,  48, 197, 438, 268,  47
 96, 443, 247,  60, 269, 438, 242,  61, 268
 97,  50, 261, 444, 203,  51, 260, 439, 198
 98, 261,  76, 248, 444, 260,  75, 243, 439
 99, 203, 444, 445, 204, 198, 439, 440, 199
100, 444, 248, 249, 445, 439, 243, 244, 440
101, 204, 445, 446, 205, 199, 440, 441, 200
102, 445, 249, 250, 446, 440, 244, 245, 441
103, 205, 446, 447, 206, 200, 441, 442, 201
104, 446, 250, 251, 447, 441, 245, 246, 442
105, 206, 447, 448, 207, 201, 442, 443, 202
106, 447, 251, 252, 448, 442, 246, 247, 443
107, 207, 448, 270,  49, 202, 443, 269,  48
108, 448, 252,  59, 270, 443, 247,  60, 269
109,   8,  29, 158,  36,  50, 261, 444, 203
110,  29,   5,  34, 158, 261,  76, 248, 444
111,  36, 158, 159,  37, 203, 444, 445, 204
112, 158,  34,  33, 159, 444, 248, 249, 445
113,  37, 159, 160,  38, 204, 445, 446, 205
114, 159,  33,  32, 160, 445, 249, 250, 446
115,  38, 160, 161,  39, 205, 446, 447, 206
116, 160,  32,  31, 161, 446, 250, 251, 447
117,  39, 161, 162,  40, 206, 447, 448, 207
118, 161,  31,  30, 162, 447, 251, 252, 448
119,  40, 162,  35,   7, 207, 448, 270,  49
120, 162,  30,   6,  35, 448, 252,  59, 270
121,  41,   4,  23, 262, 454, 450, 453, 473
122, 262,  23,   3,  67, 473, 453, 449, 472
123,  42,  41, 262, 263, 455, 454, 473, 474
124, 263, 262,  67,  66, 474, 473, 472, 471
125,  43,  42, 263, 264, 456, 455, 474, 475
126, 264, 263,  66,  65, 475, 474, 471, 470
127,  44,  43, 264, 265, 457, 456, 475, 476
128, 265, 264,  65,  64, 476, 475, 470, 469
129,  45,  44, 265, 266, 458, 457, 476, 477
130, 266, 265,  64,  63, 477, 476, 469, 468
131,  46,  45, 266, 267, 459, 458, 477, 478
132, 267, 266,  63,  62, 478, 477, 468, 467
133,  47,  46, 267, 268, 460, 459, 478, 479
134, 268, 267,  62,  61, 479, 478, 467, 466
135,  48,  47, 268, 269, 461, 460, 479, 480
136, 269, 268,  61,  60, 480, 479, 466, 465
137,  49,  48, 269, 270, 462, 461, 480, 481
138, 270, 269,  60,  59, 481, 480, 465, 464
139,   7,  49, 270,  35, 451, 462, 481, 463
140,  35, 270,  59,   6, 463, 481, 464, 452
141, 271, 298,  99,  98, 482, 509, 399, 400
142,   6, 271, 272,  35, 452, 482, 483, 463
143, 273, 296,  94,  93, 484, 507, 386, 387
144,   7, 273, 274,  49, 451, 484, 485, 462
145, 275, 294,  81,  80, 486, 505, 368, 369
146, 112, 111, 300, 302, 373, 374, 511, 513
147,   4, 275, 277,  23, 450, 486, 488, 453
148,   3, 295, 302, 300, 449, 506, 513, 511
149,  67, 276, 278,  66, 472, 487, 489, 471
150,  66, 278, 279,  65, 471, 489, 490, 470
151,  65, 279, 280,  64, 470, 490, 491, 469
152,  64, 280, 281,  63, 469, 491, 492, 468
153,  63, 281, 282,  62, 468, 492, 493, 467
154,  62, 282, 283,  61, 467, 493, 494, 466
155,  61, 283, 284,  60, 466, 494, 495, 465
156,  60, 284, 285,  59, 465, 495, 496, 464
157, 298, 301, 101, 100, 509, 512, 384, 385
158, 296, 299,  96,  95, 507, 510, 402, 403
159,  49, 274, 286,  48, 462, 485, 497, 461
160,  48, 286, 287,  47, 461, 497, 498, 460
161,  47, 287, 288,  46, 460, 498, 499, 459
162,  46, 288, 289,  45, 459, 499, 500, 458
163,  45, 289, 290,  44, 458, 500, 501, 457
164,  44, 290, 291,  43, 457, 501, 502, 456
165,  43, 291, 292,  42, 456, 502, 503, 455
166,  42, 292, 293,  41, 455, 503, 504, 454
167, 294, 297,  83,  82, 505, 508, 397, 398
168, 294,  82,  10,  81, 505, 398, 114, 368
169, 277, 275,  80,  79, 488, 486, 369, 370
170,  79,  78, 295, 277, 370, 371, 506, 488
171, 296,  95,  11,  94, 507, 403, 116, 386
172, 274, 273,  93,  92, 485, 484, 387, 388
173,  92,  91, 286, 274, 388, 389, 497, 485
174,  91,  90, 287, 286, 389, 390, 498, 497
175,  90,  89, 288, 287, 390, 391, 499, 498
176,  89,  88, 289, 288, 391, 392, 500, 499
177,  88,  87, 290, 289, 392, 393, 501, 500
178,  87,  86, 291, 290, 393, 394, 502, 501
179,  86,  85, 292, 291, 394, 395, 503, 502
180,  85,  84, 293, 292, 395, 396, 504, 503
181, 298, 100,  12,  99, 509, 385, 115, 399
182, 272, 271,  98,  97, 483, 482, 400, 401
183, 112, 302,  77,   9, 373, 513, 372, 113
184, 111, 110, 276, 300, 374, 375, 487, 511
185, 110, 109, 278, 276, 375, 376, 489, 487
186, 109, 108, 279, 278, 376, 377, 490, 489
187, 108, 107, 280, 279, 377, 378, 491, 490
188, 107, 106, 281, 280, 378, 379, 492, 491
189, 106, 105, 282, 281, 379, 380, 493, 492
190, 105, 104, 283, 282, 380, 381, 494, 493
191, 104, 103, 284, 283, 381, 382, 495, 494
192, 103, 102, 285, 284, 382, 383, 496, 495
193, 299,   7,  35, 272, 510, 451, 463, 483
194, 273,   7, 299, 296, 484, 451, 510, 507
195,  96, 299, 272,  97, 402, 510, 483, 401
196, 295,   3,  23, 277, 506, 449, 453, 488
197,   3, 300, 276,  67, 449, 511, 487, 472
198, 301,   6,  59, 285, 512, 452, 464, 496
199, 271,   6, 301, 298, 482, 452, 512, 509
200, 101, 301, 285, 102, 384, 512, 496, 383
201, 297,   4,  41, 293, 508, 450, 454, 504
202, 275,   4, 297, 294, 486, 450, 508, 505
203,  83, 297, 293,  84, 397, 508, 504, 396
204, 302, 295,  78,  77, 513, 506, 371, 372
205, 454, 450, 453, 473, 308, 304, 307, 327
206, 473, 453, 449, 472, 327, 307, 303, 326
207, 455, 454, 473, 474, 309, 308, 327, 328
208, 474, 473, 472, 471, 328, 327, 326, 325
209, 456, 455, 474, 475, 310, 309, 328, 329
210, 475, 474, 471, 470, 329, 328, 325, 324
211, 457, 456, 475, 476, 311, 310, 329, 330
212, 476, 475, 470, 469, 330, 329, 324, 323
213, 458, 457, 476, 477, 312, 311, 330, 331
214, 477, 476, 469, 468, 331, 330, 323, 322
215, 459, 458, 477, 478, 313, 312, 331, 332
216, 478, 477, 468, 467, 332, 331, 322, 321
217, 460, 459, 478, 479, 314, 313, 332, 333
218, 479, 478, 467, 466, 333, 332, 321, 320
219, 461, 460, 479, 480, 315, 314, 333, 334
220, 480, 479, 466, 465, 334, 333, 320, 319
221, 462, 461, 480, 481, 316, 315, 334, 335
222, 481, 480, 465, 464, 335, 334, 319, 318
223, 451, 462, 481, 463, 305, 316, 335, 317
224, 463, 481, 464, 452, 317, 335, 318, 306
225, 482, 509, 399, 400, 336, 363, 148, 149
226, 452, 482, 483, 463, 306, 336, 337, 317
227, 484, 507, 386, 387, 338, 361, 117, 118
228, 451, 484, 485, 462, 305, 338, 339, 316
229, 486, 505, 368, 369, 340, 359, 130, 131
230, 373, 374, 511, 513, 135, 136, 365, 367
231, 450, 486, 488, 453, 304, 340, 342, 307
232, 449, 506, 513, 511, 303, 360, 367, 365
233, 472, 487, 489, 471, 326, 341, 343, 325
234, 471, 489, 490, 470, 325, 343, 344, 324
235, 470, 490, 491, 469, 324, 344, 345, 323
236, 469, 491, 492, 468, 323, 345, 346, 322
237, 468, 492, 493, 467, 322, 346, 347, 321
238, 467, 493, 494, 466, 321, 347, 348, 320
239, 466, 494, 495, 465, 320, 348, 349, 319
240, 465, 495, 496, 464, 319, 349, 350, 318
241, 509, 512, 384, 385, 363, 366, 146, 147
242, 507, 510, 402, 403, 361, 364, 151, 152
243, 462, 485, 497, 461, 316, 339, 351, 315
244, 461, 497, 498, 460, 315, 351, 352, 314
245, 460, 498, 499, 459, 314, 352, 353, 313
246, 459, 499, 500, 458, 313, 353, 354, 312
247, 458, 500, 501, 457, 312, 354, 355, 311
248, 457, 501, 502, 456, 311, 355, 356, 310
249, 456, 502, 503, 455, 310, 356, 357, 309
250, 455, 503, 504, 454, 309, 357, 358, 308
251, 505, 508, 397, 398, 359, 362, 128, 129
252, 505, 398, 114, 368, 359, 129,  14, 130
253, 488, 486, 369, 370, 342, 340, 131, 132
254, 370, 371, 506, 488, 132, 133, 360, 342
255, 507, 403, 116, 386, 361, 152,  13, 117
256, 485, 484, 387, 388, 339, 338, 118, 119
257, 388, 389, 497, 485, 119, 120, 351, 339
258, 389, 390, 498, 497, 120, 121, 352, 351
259, 390, 391, 499, 498, 121, 122, 353, 352
260, 391, 392, 500, 499, 122, 123, 354, 353
261, 392, 393, 501, 500, 123, 124, 355, 354
262, 393, 394, 502, 501, 124, 125, 356, 355
263, 394, 395, 503, 502, 125, 126, 357, 356
264, 395, 396, 504, 503, 126, 127, 358, 357
265, 509, 385, 115, 399, 363, 147,  16, 148
266, 483, 482, 400, 401, 337, 336, 149, 150
267, 373, 513, 372, 113, 135, 367, 134,  15
268, 374, 375, 487, 511, 136, 137, 341, 365
269, 375, 376, 489, 487, 137, 138, 343, 341
270, 376, 377, 490, 489, 138, 139, 344, 343
271, 377, 378, 491, 490, 139, 140, 345, 344
272, 378, 379, 492, 491, 140, 141, 346, 345
273, 379, 380, 493, 492, 141, 142, 347, 346
274, 380, 381, 494, 493, 142, 143, 348, 347
275, 381, 382, 495, 494, 143, 144, 349, 348
276, 382, 383, 496, 495, 144, 145, 350, 349
277, 510, 451, 463, 483, 364, 305, 317, 337
278, 484, 451, 510, 507, 338, 305, 364, 361
279, 402, 510, 483, 401, 151, 364, 337, 150
280, 506, 449, 453, 488, 360, 303, 307, 342
281, 449, 511, 487, 472, 303, 365, 341, 326
282, 512, 452, 464, 496, 366, 306, 318, 350
283, 482, 452, 512, 509, 336, 306, 366, 363
284, 384, 512, 496, 383, 146, 366, 350, 145
285, 508, 450, 454, 504, 362, 304, 308, 358
286, 486, 450, 508, 505, 340, 304, 362, 359
287, 397, 508, 504, 396, 128, 362, 358, 127
288, 513, 506, 371, 372, 367, 360, 133, 134
*End Part
**  
**
** ASSEMBLY
**
*Assembly, name=Assembly
**  
*Instance, name=Part-1-1, part=Part-1
*End Instance
**  
*End Assembly
