*Heading
** Job name: mtsl Model name: Model-1
** Generated by: Abaqus/CAE 2023
*Preprint, echo=NO, model=NO, history=NO, contact=NO
**
** PARTS
**
*Part, name=Part-3
*Node
      1,           2.,           2.,           1.
      2,           2.,           2.,           0.
      3,           2.,           5.,           0.
      4,           2.,           4.,           1.
      5,           2.,           5.,           1.
      6,           5.,           2.,           1.
      7,           5.,           2.,           0.
      8,           5.,           5.,           0.
      9,           5.,           5.,           1.
     10,           4.,           2.,           1.
     11,           2.,           0.,           2.
     12,           2.,           2.,           2.
     13,           0.,           2.,           2.
     14,           0.,           0.,           2.
     15,           0.,           2.,           1.
     16,           0.,           0.,           1.
     17,           2.,           0.,           1.
     18,           0.,           4.,           2.
     19,           0.,           4.,           1.
     20,           2.,           4.,           2.
     21,           4.,           2.,           2.
     22,           4.,           0.,           2.
     23,           4.,           0.,           1.
     24,          -1.,           2.,           1.
     25,          -1.,           5.,           1.
     26,          -1.,           2.,           0.
     27,          -1.,           5.,           0.
     28,          -1.,          -1.,           1.
     29,           2.,          -1.,           1.
     30,           2.,          -1.,           0.
     31,          -1.,          -1.,           0.
     32,           5.,          -1.,           1.
     33,           5.,          -1.,           0.
     34,           2.,           2.,          0.5
     35,           2.,          2.5,           0.
     36,           2.,           3.,           0.
     37,           2.,          3.5,           0.
     38,           2.,           4.,           0.
     39,           2.,          4.5,           0.
     40,           2.,           5.,          0.5
     41,           2.,          3.5,           1.
     42,           2.,           3.,           1.
     43,           2.,          2.5,           1.
     44,           2.,          4.5,           1.
     45,           5.,           2.,          0.5
     46,           5.,          2.5,           0.
     47,           5.,           3.,           0.
     48,           5.,          3.5,           0.
     49,           5.,           4.,           0.
     50,           5.,          4.5,           0.
     51,           5.,           5.,          0.5
     52,           5.,          4.5,           1.
     53,           5.,           4.,           1.
     54,           5.,          3.5,           1.
     55,           5.,           3.,           1.
     56,           5.,          2.5,           1.
     57,          4.5,           5.,           1.
     58,           4.,           5.,           1.
     59,          3.5,           5.,           1.
     60,           3.,           5.,           1.
     61,          2.5,           5.,           1.
     62,          2.5,           2.,           1.
     63,           3.,           2.,           1.
     64,          3.5,           2.,           1.
     65,          4.5,           2.,           1.
     66,          2.5,           5.,           0.
     67,           3.,           5.,           0.
     68,          3.5,           5.,           0.
     69,           4.,           5.,           0.
     70,          4.5,           5.,           0.
     71,          4.5,           2.,           0.
     72,           4.,           2.,           0.
     73,          3.5,           2.,           0.
     74,           3.,           2.,           0.
     75,          2.5,           2.,           0.
     76,           2.,          0.5,           2.
     77,           2.,           1.,           2.
     78,           2.,          1.5,           2.
     79,          1.5,           2.,           2.
     80,           1.,           2.,           2.
     81,          0.5,           2.,           2.
     82,           0.,          1.5,           2.
     83,           0.,           1.,           2.
     84,           0.,          0.5,           2.
     85,          0.5,           0.,           2.
     86,           1.,           0.,           2.
     87,          1.5,           0.,           2.
     88,           2.,          1.5,           1.
     89,           2.,           1.,           1.
     90,           2.,          0.5,           1.
     91,          0.5,           2.,           1.
     92,           1.,           2.,           1.
     93,          1.5,           2.,           1.
     94,           0.,          0.5,           1.
     95,           0.,           1.,           1.
     96,           0.,          1.5,           1.
     97,          1.5,           0.,           1.
     98,           1.,           0.,           1.
     99,          0.5,           0.,           1.
    100,           0.,           0.,          1.5
    101,           2.,           0.,          1.5
    102,           0.,           2.,          1.5
    103,           2.,           2.,          1.5
    104,           0.,          2.5,           2.
    105,           0.,           3.,           2.
    106,           0.,          3.5,           2.
    107,           0.,           4.,          1.5
    108,           0.,          3.5,           1.
    109,           0.,           3.,           1.
    110,           0.,          2.5,           1.
    111,           2.,          3.5,           2.
    112,           2.,           3.,           2.
    113,           2.,          2.5,           2.
    114,           2.,           4.,          1.5
    115,          0.5,           4.,           1.
    116,           1.,           4.,           1.
    117,          1.5,           4.,           1.
    118,          1.5,           4.,           2.
    119,           1.,           4.,           2.
    120,          0.5,           4.,           2.
    121,           4.,          1.5,           2.
    122,           4.,           1.,           2.
    123,           4.,          0.5,           2.
    124,           4.,           0.,          1.5
    125,           4.,          0.5,           1.
    126,           4.,           1.,           1.
    127,           4.,          1.5,           1.
    128,           4.,           2.,          1.5
    129,          2.5,           2.,           2.
    130,           3.,           2.,           2.
    131,          3.5,           2.,           2.
    132,          2.5,           0.,           1.
    133,           3.,           0.,           1.
    134,          3.5,           0.,           1.
    135,          3.5,           0.,           2.
    136,           3.,           0.,           2.
    137,          2.5,           0.,           2.
    138,         -0.5,           2.,           1.
    139,          1.5,           5.,           1.
    140,           1.,           5.,           1.
    141,          0.5,           5.,           1.
    142,           0.,           5.,           1.
    143,         -0.5,           5.,           1.
    144,          -1.,          4.5,           1.
    145,          -1.,           4.,           1.
    146,          -1.,          3.5,           1.
    147,          -1.,           3.,           1.
    148,          -1.,          2.5,           1.
    149,          -1.,           2.,          0.5
    150,          -1.,           5.,          0.5
    151,          1.5,           2.,           0.
    152,           1.,           2.,           0.
    153,          0.5,           2.,           0.
    154,           0.,           2.,           0.
    155,         -0.5,           2.,           0.
    156,          -1.,          2.5,           0.
    157,          -1.,           3.,           0.
    158,          -1.,          3.5,           0.
    159,          -1.,           4.,           0.
    160,          -1.,          4.5,           0.
    161,         -0.5,           5.,           0.
    162,           0.,           5.,           0.
    163,          0.5,           5.,           0.
    164,           1.,           5.,           0.
    165,          1.5,           5.,           0.
    166,          -1.,          1.5,           1.
    167,          -1.,           1.,           1.
    168,          -1.,          0.5,           1.
    169,          -1.,           0.,           1.
    170,          -1.,         -0.5,           1.
    171,         -0.5,          -1.,           1.
    172,           0.,          -1.,           1.
    173,          0.5,          -1.,           1.
    174,           1.,          -1.,           1.
    175,          1.5,          -1.,           1.
    176,           2.,         -0.5,           1.
    177,          -1.,          -1.,          0.5
    178,           2.,          -1.,          0.5
    179,           2.,          1.5,           0.
    180,           2.,           1.,           0.
    181,           2.,          0.5,           0.
    182,           2.,           0.,           0.
    183,           2.,         -0.5,           0.
    184,          1.5,          -1.,           0.
    185,           1.,          -1.,           0.
    186,          0.5,          -1.,           0.
    187,           0.,          -1.,           0.
    188,         -0.5,          -1.,           0.
    189,          -1.,         -0.5,           0.
    190,          -1.,           0.,           0.
    191,          -1.,          0.5,           0.
    192,          -1.,           1.,           0.
    193,          -1.,          1.5,           0.
    194,          2.5,          -1.,           1.
    195,           3.,          -1.,           1.
    196,          3.5,          -1.,           1.
    197,           4.,          -1.,           1.
    198,          4.5,          -1.,           1.
    199,           5.,         -0.5,           1.
    200,           5.,           0.,           1.
    201,           5.,          0.5,           1.
    202,           5.,           1.,           1.
    203,           5.,          1.5,           1.
    204,           5.,          -1.,          0.5
    205,           5.,          1.5,           0.
    206,           5.,           1.,           0.
    207,           5.,          0.5,           0.
    208,           5.,           0.,           0.
    209,           5.,         -0.5,           0.
    210,          4.5,          -1.,           0.
    211,           4.,          -1.,           0.
    212,          3.5,          -1.,           0.
    213,           3.,          -1.,           0.
    214,          2.5,          -1.,           0.
    215,           2.,          2.5,          0.5
    216,           2.,           3.,          0.5
    217,           2.,          3.5,          0.5
    218,           2.,           4.,          0.5
    219,           2.,          4.5,          0.5
    220,           5.,          2.5,          0.5
    221,           5.,           3.,          0.5
    222,           5.,          3.5,          0.5
    223,           5.,           4.,          0.5
    224,           5.,          4.5,          0.5
    225,          2.5,          2.5,           1.
    226,          2.5,           3.,           1.
    227,          2.5,          3.5,           1.
    228,          2.5,           4.,           1.
    229,          2.5,          4.5,           1.
    230,           3.,          2.5,           1.
    231,           3.,           3.,           1.
    232,           3.,          3.5,           1.
    233,           3.,           4.,           1.
    234,           3.,          4.5,           1.
    235,          3.5,          2.5,           1.
    236,          3.5,           3.,           1.
    237,          3.5,          3.5,           1.
    238,          3.5,           4.,           1.
    239,          3.5,          4.5,           1.
    240,           4.,          2.5,           1.
    241,           4.,           3.,           1.
    242,           4.,          3.5,           1.
    243,           4.,           4.,           1.
    244,           4.,          4.5,           1.
    245,          4.5,          2.5,           1.
    246,          4.5,           3.,           1.
    247,          4.5,          3.5,           1.
    248,          4.5,           4.,           1.
    249,          4.5,          4.5,           1.
    250,          2.5,          2.5,           0.
    251,          2.5,           3.,           0.
    252,          2.5,          3.5,           0.
    253,          2.5,           4.,           0.
    254,          2.5,          4.5,           0.
    255,           3.,          2.5,           0.
    256,           3.,           3.,           0.
    257,           3.,          3.5,           0.
    258,           3.,           4.,           0.
    259,           3.,          4.5,           0.
    260,          3.5,          2.5,           0.
    261,          3.5,           3.,           0.
    262,          3.5,          3.5,           0.
    263,          3.5,           4.,           0.
    264,          3.5,          4.5,           0.
    265,           4.,          2.5,           0.
    266,           4.,           3.,           0.
    267,           4.,          3.5,           0.
    268,           4.,           4.,           0.
    269,           4.,          4.5,           0.
    270,          4.5,          2.5,           0.
    271,          4.5,           3.,           0.
    272,          4.5,          3.5,           0.
    273,          4.5,           4.,           0.
    274,          4.5,          4.5,           0.
    275,          2.5,           2.,          0.5
    276,           3.,           2.,          0.5
    277,          3.5,           2.,          0.5
    278,           4.,           2.,          0.5
    279,          4.5,           2.,          0.5
    280,          2.5,           5.,          0.5
    281,           3.,           5.,          0.5
    282,          3.5,           5.,          0.5
    283,           4.,           5.,          0.5
    284,          4.5,           5.,          0.5
    285,          1.5,          0.5,           2.
    286,          1.5,           1.,           2.
    287,          1.5,          1.5,           2.
    288,           1.,          0.5,           2.
    289,           1.,           1.,           2.
    290,           1.,          1.5,           2.
    291,          0.5,          0.5,           2.
    292,          0.5,           1.,           2.
    293,          0.5,          1.5,           2.
    294,          1.5,          0.5,           1.
    295,          1.5,           1.,           1.
    296,          1.5,          1.5,           1.
    297,           1.,          0.5,           1.
    298,           1.,           1.,           1.
    299,           1.,          1.5,           1.
    300,          0.5,          0.5,           1.
    301,          0.5,           1.,           1.
    302,          0.5,          1.5,           1.
    303,          1.5,           0.,          1.5
    304,           1.,           0.,          1.5
    305,          0.5,           0.,          1.5
    306,          1.5,           2.,          1.5
    307,           1.,           2.,          1.5
    308,          0.5,           2.,          1.5
    309,           2.,          0.5,          1.5
    310,           2.,           1.,          1.5
    311,           2.,          1.5,          1.5
    312,           0.,          0.5,          1.5
    313,           0.,           1.,          1.5
    314,           0.,          1.5,          1.5
    315,           0.,          2.5,          1.5
    316,           0.,           3.,          1.5
    317,           0.,          3.5,          1.5
    318,           2.,          2.5,          1.5
    319,           2.,           3.,          1.5
    320,           2.,          3.5,          1.5
    321,          0.5,          2.5,           1.
    322,          0.5,           3.,           1.
    323,          0.5,          3.5,           1.
    324,           1.,          2.5,           1.
    325,           1.,           3.,           1.
    326,           1.,          3.5,           1.
    327,          1.5,          2.5,           1.
    328,          1.5,           3.,           1.
    329,          1.5,          3.5,           1.
    330,          0.5,          2.5,           2.
    331,          0.5,           3.,           2.
    332,          0.5,          3.5,           2.
    333,           1.,          2.5,           2.
    334,           1.,           3.,           2.
    335,           1.,          3.5,           2.
    336,          1.5,          2.5,           2.
    337,          1.5,           3.,           2.
    338,          1.5,          3.5,           2.
    339,          0.5,           4.,          1.5
    340,           1.,           4.,          1.5
    341,          1.5,           4.,          1.5
    342,           4.,          1.5,          1.5
    343,           4.,           1.,          1.5
    344,           4.,          0.5,          1.5
    345,          3.5,           2.,          1.5
    346,           3.,           2.,          1.5
    347,          2.5,           2.,          1.5
    348,          3.5,           0.,          1.5
    349,           3.,           0.,          1.5
    350,          2.5,           0.,          1.5
    351,          3.5,          1.5,           2.
    352,          3.5,           1.,           2.
    353,          3.5,          0.5,           2.
    354,           3.,          1.5,           2.
    355,           3.,           1.,           2.
    356,           3.,          0.5,           2.
    357,          2.5,          1.5,           2.
    358,          2.5,           1.,           2.
    359,          2.5,          0.5,           2.
    360,          3.5,          1.5,           1.
    361,          3.5,           1.,           1.
    362,          3.5,          0.5,           1.
    363,           3.,          1.5,           1.
    364,           3.,           1.,           1.
    365,           3.,          0.5,           1.
    366,          2.5,          1.5,           1.
    367,          2.5,           1.,           1.
    368,          2.5,          0.5,           1.
    369, -0.500722945,   3.49969363,           1.
    370, 0.000485996075,   4.49977541,           1.
    371,  0.500486791,   4.49992323,           1.
    372, -0.501097441,   2.99999022,           1.
    373, -0.500342846,   2.49999809,           1.
    374,   1.00045311,   4.50001764,           1.
    375,  -0.49785164,   4.49936724,           1.
    376, -0.499568045,   3.99985409,           1.
    377,     1.500085,   4.50000572,           1.
    378,           0.,           4.,           0.
    379,           0.,          2.5,           0.
    380,           0.,           3.,           0.
    381,           0.,          3.5,           0.
    382,          0.5,           4.,           0.
    383,           1.,           4.,           0.
    384,          1.5,           4.,           0.
    385,          0.5,          2.5,           0.
    386,          0.5,           3.,           0.
    387,          0.5,          3.5,           0.
    388,           1.,          2.5,           0.
    389,           1.,           3.,           0.
    390,           1.,          3.5,           0.
    391,          1.5,          2.5,           0.
    392,          1.5,           3.,           0.
    393,          1.5,          3.5,           0.
    394, -0.500722945,   3.49969363,           0.
    395, 0.000485996075,   4.49977541,           0.
    396,  0.500486791,   4.49992323,           0.
    397, -0.501097441,   2.99999022,           0.
    398, -0.500342846,   2.49999809,           0.
    399,   1.00045311,   4.50001764,           0.
    400,  -0.49785164,   4.49936724,           0.
    401, -0.499568045,   3.99985409,           0.
    402,     1.500085,   4.50000572,           0.
    403,          1.5,           2.,          0.5
    404,           1.,           2.,          0.5
    405,          0.5,           2.,          0.5
    406,           0.,           2.,          0.5
    407,         -0.5,           2.,          0.5
    408,          -1.,          2.5,          0.5
    409,          -1.,           3.,          0.5
    410,          -1.,          3.5,          0.5
    411,          -1.,           4.,          0.5
    412,          -1.,          4.5,          0.5
    413,         -0.5,           5.,          0.5
    414,           0.,           5.,          0.5
    415,          0.5,           5.,          0.5
    416,           1.,           5.,          0.5
    417,          1.5,           5.,          0.5
    418, -0.501313925,  0.999442816,           1.
    419,   1.00028145, -0.500738621,           1.
    420, -0.499238104, -0.00133225333,           1.
    421, -0.500172377,  0.499645859,           1.
    422, -0.500410497,   1.49989557,           1.
    423,  0.500757933, -0.502893925,           1.
    424, 0.000629781978,  -0.50213927,           1.
    425,   1.50032377, -0.499946266,           1.
    426, -0.499643862, -0.500918031,           1.
    427,           0.,           0.,           0.
    428,          1.5,           0.,           0.
    429,           1.,           0.,           0.
    430,          0.5,           0.,           0.
    431,           0.,          0.5,           0.
    432,           0.,           1.,           0.
    433,           0.,          1.5,           0.
    434,          1.5,          0.5,           0.
    435,          1.5,           1.,           0.
    436,          1.5,          1.5,           0.
    437,           1.,          0.5,           0.
    438,           1.,           1.,           0.
    439,           1.,          1.5,           0.
    440,          0.5,          0.5,           0.
    441,          0.5,           1.,           0.
    442,          0.5,          1.5,           0.
    443, -0.501313925,  0.999442816,           0.
    444,   1.00028145, -0.500738621,           0.
    445, -0.499238104, -0.00133225333,           0.
    446, -0.500172377,  0.499645859,           0.
    447, -0.500410497,   1.49989557,           0.
    448,  0.500757933, -0.502893925,           0.
    449, 0.000629781978,  -0.50213927,           0.
    450,   1.50032377, -0.499946266,           0.
    451, -0.499643862, -0.500918031,           0.
    452,          -1.,         -0.5,          0.5
    453,          -1.,           0.,          0.5
    454,          -1.,          0.5,          0.5
    455,          -1.,           1.,          0.5
    456,          -1.,          1.5,          0.5
    457,           2.,          1.5,          0.5
    458,           2.,           1.,          0.5
    459,           2.,          0.5,          0.5
    460,           2.,           0.,          0.5
    461,           2.,         -0.5,          0.5
    462,          1.5,          -1.,          0.5
    463,           1.,          -1.,          0.5
    464,          0.5,          -1.,          0.5
    465,           0.,          -1.,          0.5
    466,         -0.5,          -1.,          0.5
    467,   4.49516821,  0.499263436,           1.
    468,   3.99974418, -0.499386132,           1.
    469,   3.49975061, -0.499516785,           1.
    470,   4.49736261,  0.999734998,           1.
    471,    4.4991765,   1.49995065,           1.
    472,   2.99991536, -0.499757677,           1.
    473,   4.49814463, -6.59080979e-05,           1.
    474,    2.4997983, -0.499707788,           1.
    475,   4.49937201,  -0.49982053,           1.
    476,           4.,           0.,           0.
    477,           4.,          1.5,           0.
    478,           4.,           1.,           0.
    479,           4.,          0.5,           0.
    480,          3.5,           0.,           0.
    481,           3.,           0.,           0.
    482,          2.5,           0.,           0.
    483,          3.5,          1.5,           0.
    484,          3.5,           1.,           0.
    485,          3.5,          0.5,           0.
    486,           3.,          1.5,           0.
    487,           3.,           1.,           0.
    488,           3.,          0.5,           0.
    489,          2.5,          1.5,           0.
    490,          2.5,           1.,           0.
    491,          2.5,          0.5,           0.
    492,   4.49516821,  0.499263436,           0.
    493,   3.99974418, -0.499386132,           0.
    494,   3.49975061, -0.499516785,           0.
    495,   4.49736261,  0.999734998,           0.
    496,    4.4991765,   1.49995065,           0.
    497,   2.99991536, -0.499757677,           0.
    498,   4.49814463, -6.59080979e-05,           0.
    499,    2.4997983, -0.499707788,           0.
    500,   4.49937201,  -0.49982053,           0.
    501,          4.5,          -1.,          0.5
    502,           4.,          -1.,          0.5
    503,          3.5,          -1.,          0.5
    504,           3.,          -1.,          0.5
    505,          2.5,          -1.,          0.5
    506,           5.,          1.5,          0.5
    507,           5.,           1.,          0.5
    508,           5.,          0.5,          0.5
    509,           5.,           0.,          0.5
    510,           5.,         -0.5,          0.5
    511,          2.5,          2.5,          0.5
    512,          2.5,           3.,          0.5
    513,          2.5,          3.5,          0.5
    514,          2.5,           4.,          0.5
    515,          2.5,          4.5,          0.5
    516,           3.,          2.5,          0.5
    517,           3.,           3.,          0.5
    518,           3.,          3.5,          0.5
    519,           3.,           4.,          0.5
    520,           3.,          4.5,          0.5
    521,          3.5,          2.5,          0.5
    522,          3.5,           3.,          0.5
    523,          3.5,          3.5,          0.5
    524,          3.5,           4.,          0.5
    525,          3.5,          4.5,          0.5
    526,           4.,          2.5,          0.5
    527,           4.,           3.,          0.5
    528,           4.,          3.5,          0.5
    529,           4.,           4.,          0.5
    530,           4.,          4.5,          0.5
    531,          4.5,          2.5,          0.5
    532,          4.5,           3.,          0.5
    533,          4.5,          3.5,          0.5
    534,          4.5,           4.,          0.5
    535,          4.5,          4.5,          0.5
    536,          1.5,          0.5,          1.5
    537,          1.5,           1.,          1.5
    538,          1.5,          1.5,          1.5
    539,           1.,          0.5,          1.5
    540,           1.,           1.,          1.5
    541,           1.,          1.5,          1.5
    542,          0.5,          0.5,          1.5
    543,          0.5,           1.,          1.5
    544,          0.5,          1.5,          1.5
    545,          0.5,          2.5,          1.5
    546,          0.5,           3.,          1.5
    547,          0.5,          3.5,          1.5
    548,           1.,          2.5,          1.5
    549,           1.,           3.,          1.5
    550,           1.,          3.5,          1.5
    551,          1.5,          2.5,          1.5
    552,          1.5,           3.,          1.5
    553,          1.5,          3.5,          1.5
    554,          3.5,          1.5,          1.5
    555,          3.5,           1.,          1.5
    556,          3.5,          0.5,          1.5
    557,           3.,          1.5,          1.5
    558,           3.,           1.,          1.5
    559,           3.,          0.5,          1.5
    560,          2.5,          1.5,          1.5
    561,          2.5,           1.,          1.5
    562,          2.5,          0.5,          1.5
    563,           0.,           4.,          0.5
    564,           0.,          2.5,          0.5
    565,           0.,           3.,          0.5
    566,           0.,          3.5,          0.5
    567,          0.5,           4.,          0.5
    568,           1.,           4.,          0.5
    569,          1.5,           4.,          0.5
    570,          0.5,          2.5,          0.5
    571,          0.5,           3.,          0.5
    572,          0.5,          3.5,          0.5
    573,           1.,          2.5,          0.5
    574,           1.,           3.,          0.5
    575,           1.,          3.5,          0.5
    576,          1.5,          2.5,          0.5
    577,          1.5,           3.,          0.5
    578,          1.5,          3.5,          0.5
    579, -0.500722945,   3.49969363,          0.5
    580, 0.000485996075,   4.49977541,          0.5
    581,  0.500486791,   4.49992323,          0.5
    582, -0.501097441,   2.99999022,          0.5
    583, -0.500342846,   2.49999809,          0.5
    584,   1.00045311,   4.50001764,          0.5
    585,  -0.49785164,   4.49936724,          0.5
    586, -0.499568045,   3.99985409,          0.5
    587,     1.500085,   4.50000572,          0.5
    588,           0.,           0.,          0.5
    589,          1.5,           0.,          0.5
    590,           1.,           0.,          0.5
    591,          0.5,           0.,          0.5
    592,           0.,          0.5,          0.5
    593,           0.,           1.,          0.5
    594,           0.,          1.5,          0.5
    595,          1.5,          0.5,          0.5
    596,          1.5,           1.,          0.5
    597,          1.5,          1.5,          0.5
    598,           1.,          0.5,          0.5
    599,           1.,           1.,          0.5
    600,           1.,          1.5,          0.5
    601,          0.5,          0.5,          0.5
    602,          0.5,           1.,          0.5
    603,          0.5,          1.5,          0.5
    604, -0.501313925,  0.999442816,          0.5
    605,   1.00028145, -0.500738621,          0.5
    606, -0.499238104, -0.00133225333,          0.5
    607, -0.500172377,  0.499645859,          0.5
    608, -0.500410497,   1.49989557,          0.5
    609,  0.500757933, -0.502893925,          0.5
    610, 0.000629781978,  -0.50213927,          0.5
    611,   1.50032377, -0.499946266,          0.5
    612, -0.499643862, -0.500918031,          0.5
    613,           4.,           0.,          0.5
    614,           4.,          1.5,          0.5
    615,           4.,           1.,          0.5
    616,           4.,          0.5,          0.5
    617,          3.5,           0.,          0.5
    618,           3.,           0.,          0.5
    619,          2.5,           0.,          0.5
    620,          3.5,          1.5,          0.5
    621,          3.5,           1.,          0.5
    622,          3.5,          0.5,          0.5
    623,           3.,          1.5,          0.5
    624,           3.,           1.,          0.5
    625,           3.,          0.5,          0.5
    626,          2.5,          1.5,          0.5
    627,          2.5,           1.,          0.5
    628,          2.5,          0.5,          0.5
    629,   4.49516821,  0.499263436,          0.5
    630,   3.99974418, -0.499386132,          0.5
    631,   3.49975061, -0.499516785,          0.5
    632,   4.49736261,  0.999734998,          0.5
    633,    4.4991765,   1.49995065,          0.5
    634,   2.99991536, -0.499757677,          0.5
    635,   4.49814463, -6.59080979e-05,          0.5
    636,    2.4997983, -0.499707788,          0.5
    637,   4.49937201,  -0.49982053,          0.5
*Element, type=C3D8R
 1, 215,  34, 275, 511,  43,   1,  62, 225
 2,  35,   2,  75, 250, 215,  34, 275, 511
 3, 216, 215, 511, 512,  42,  43, 225, 226
 4,  36,  35, 250, 251, 216, 215, 511, 512
 5, 217, 216, 512, 513,  41,  42, 226, 227
 6,  37,  36, 251, 252, 217, 216, 512, 513
 7, 218, 217, 513, 514,   4,  41, 227, 228
 8,  38,  37, 252, 253, 218, 217, 513, 514
 9, 219, 218, 514, 515,  44,   4, 228, 229
10,  39,  38, 253, 254, 219, 218, 514, 515
11,  40, 219, 515, 280,   5,  44, 229,  61
12,   3,  39, 254,  66,  40, 219, 515, 280
13, 511, 275, 276, 516, 225,  62,  63, 230
14, 250,  75,  74, 255, 511, 275, 276, 516
15, 512, 511, 516, 517, 226, 225, 230, 231
16, 251, 250, 255, 256, 512, 511, 516, 517
17, 513, 512, 517, 518, 227, 226, 231, 232
18, 252, 251, 256, 257, 513, 512, 517, 518
19, 514, 513, 518, 519, 228, 227, 232, 233
20, 253, 252, 257, 258, 514, 513, 518, 519
21, 515, 514, 519, 520, 229, 228, 233, 234
22, 254, 253, 258, 259, 515, 514, 519, 520
23, 280, 515, 520, 281,  61, 229, 234,  60
24,  66, 254, 259,  67, 280, 515, 520, 281
25, 516, 276, 277, 521, 230,  63,  64, 235
26, 255,  74,  73, 260, 516, 276, 277, 521
27, 517, 516, 521, 522, 231, 230, 235, 236
28, 256, 255, 260, 261, 517, 516, 521, 522
29, 518, 517, 522, 523, 232, 231, 236, 237
30, 257, 256, 261, 262, 518, 517, 522, 523
31, 519, 518, 523, 524, 233, 232, 237, 238
32, 258, 257, 262, 263, 519, 518, 523, 524
33, 520, 519, 524, 525, 234, 233, 238, 239
34, 259, 258, 263, 264, 520, 519, 524, 525
35, 281, 520, 525, 282,  60, 234, 239,  59
36,  67, 259, 264,  68, 281, 520, 525, 282
37, 521, 277, 278, 526, 235,  64,  10, 240
38, 260,  73,  72, 265, 521, 277, 278, 526
39, 522, 521, 526, 527, 236, 235, 240, 241
40, 261, 260, 265, 266, 522, 521, 526, 527
41, 523, 522, 527, 528, 237, 236, 241, 242
42, 262, 261, 266, 267, 523, 522, 527, 528
43, 524, 523, 528, 529, 238, 237, 242, 243
44, 263, 262, 267, 268, 524, 523, 528, 529
45, 525, 524, 529, 530, 239, 238, 243, 244
46, 264, 263, 268, 269, 525, 524, 529, 530
47, 282, 525, 530, 283,  59, 239, 244,  58
48,  68, 264, 269,  69, 282, 525, 530, 283
49, 526, 278, 279, 531, 240,  10,  65, 245
50, 265,  72,  71, 270, 526, 278, 279, 531
51, 527, 526, 531, 532, 241, 240, 245, 246
52, 266, 265, 270, 271, 527, 526, 531, 532
53, 528, 527, 532, 533, 242, 241, 246, 247
54, 267, 266, 271, 272, 528, 527, 532, 533
55, 529, 528, 533, 534, 243, 242, 247, 248
56, 268, 267, 272, 273, 529, 528, 533, 534
57, 530, 529, 534, 535, 244, 243, 248, 249
58, 269, 268, 273, 274, 530, 529, 534, 535
59, 283, 530, 535, 284,  58, 244, 249,  57
60,  69, 269, 274,  70, 283, 530, 535, 284
61, 531, 279,  45, 220, 245,  65,   6,  56
62, 270,  71,   7,  46, 531, 279,  45, 220
63, 532, 531, 220, 221, 246, 245,  56,  55
64, 271, 270,  46,  47, 532, 531, 220, 221
65, 533, 532, 221, 222, 247, 246,  55,  54
66, 272, 271,  47,  48, 533, 532, 221, 222
67, 534, 533, 222, 223, 248, 247,  54,  53
68, 273, 272,  48,  49, 534, 533, 222, 223
69, 535, 534, 223, 224, 249, 248,  53,  52
70, 274, 273,  49,  50, 535, 534, 223, 224
71, 284, 535, 224,  51,  57, 249,  52,   9
72,  70, 274,  50,   8, 284, 535, 224,  51
 73, 101, 309, 536, 303,  11,  76, 285,  87
 74, 309, 310, 537, 536,  76,  77, 286, 285
 75, 310, 311, 538, 537,  77,  78, 287, 286
 76, 311, 103, 306, 538,  78,  12,  79, 287
 77, 303, 536, 539, 304,  87, 285, 288,  86
 78, 536, 537, 540, 539, 285, 286, 289, 288
 79, 537, 538, 541, 540, 286, 287, 290, 289
 80, 538, 306, 307, 541, 287,  79,  80, 290
 81, 304, 539, 542, 305,  86, 288, 291,  85
 82, 539, 540, 543, 542, 288, 289, 292, 291
 83, 540, 541, 544, 543, 289, 290, 293, 292
 84, 541, 307, 308, 544, 290,  80,  81, 293
 85, 305, 542, 312, 100,  85, 291,  84,  14
 86, 542, 543, 313, 312, 291, 292,  83,  84
 87, 543, 544, 314, 313, 292, 293,  82,  83
 88, 544, 308, 102, 314, 293,  81,  13,  82
 89,  17,  90, 294,  97, 101, 309, 536, 303
 90,  90,  89, 295, 294, 309, 310, 537, 536
 91,  89,  88, 296, 295, 310, 311, 538, 537
 92,  88,   1,  93, 296, 311, 103, 306, 538
 93,  97, 294, 297,  98, 303, 536, 539, 304
 94, 294, 295, 298, 297, 536, 537, 540, 539
 95, 295, 296, 299, 298, 537, 538, 541, 540
 96, 296,  93,  92, 299, 538, 306, 307, 541
 97,  98, 297, 300,  99, 304, 539, 542, 305
 98, 297, 298, 301, 300, 539, 540, 543, 542
 99, 298, 299, 302, 301, 540, 541, 544, 543
100, 299,  92,  91, 302, 541, 307, 308, 544
101,  99, 300,  94,  16, 305, 542, 312, 100
102, 300, 301,  95,  94, 542, 543, 313, 312
103, 301, 302,  96,  95, 543, 544, 314, 313
104, 302,  91,  15,  96, 544, 308, 102, 314
105,  91, 321, 110,  15, 308, 545, 315, 102
106, 308, 545, 315, 102,  81, 330, 104,  13
107, 321, 322, 109, 110, 545, 546, 316, 315
108, 545, 546, 316, 315, 330, 331, 105, 104
109, 322, 323, 108, 109, 546, 547, 317, 316
110, 546, 547, 317, 316, 331, 332, 106, 105
111, 323, 115,  19, 108, 547, 339, 107, 317
112, 547, 339, 107, 317, 332, 120,  18, 106
113,  92, 324, 321,  91, 307, 548, 545, 308
114, 307, 548, 545, 308,  80, 333, 330,  81
115, 324, 325, 322, 321, 548, 549, 546, 545
116, 548, 549, 546, 545, 333, 334, 331, 330
117, 325, 326, 323, 322, 549, 550, 547, 546
118, 549, 550, 547, 546, 334, 335, 332, 331
119, 326, 116, 115, 323, 550, 340, 339, 547
120, 550, 340, 339, 547, 335, 119, 120, 332
121,  93, 327, 324,  92, 306, 551, 548, 307
122, 306, 551, 548, 307,  79, 336, 333,  80
123, 327, 328, 325, 324, 551, 552, 549, 548
124, 551, 552, 549, 548, 336, 337, 334, 333
125, 328, 329, 326, 325, 552, 553, 550, 549
126, 552, 553, 550, 549, 337, 338, 335, 334
127, 329, 117, 116, 326, 553, 341, 340, 550
128, 553, 341, 340, 550, 338, 118, 119, 335
129,   1,  43, 327,  93, 103, 318, 551, 306
130, 103, 318, 551, 306,  12, 113, 336,  79
131,  43,  42, 328, 327, 318, 319, 552, 551
132, 318, 319, 552, 551, 113, 112, 337, 336
133,  42,  41, 329, 328, 319, 320, 553, 552
134, 319, 320, 553, 552, 112, 111, 338, 337
135,  41,   4, 117, 329, 320, 114, 341, 553
136, 320, 114, 341, 553, 111,  20, 118, 338
137, 345, 554, 342, 128, 131, 351, 121,  21
138, 554, 555, 343, 342, 351, 352, 122, 121
139, 555, 556, 344, 343, 352, 353, 123, 122
140, 556, 348, 124, 344, 353, 135,  22, 123
141,  64, 360, 127,  10, 345, 554, 342, 128
142, 360, 361, 126, 127, 554, 555, 343, 342
143, 361, 362, 125, 126, 555, 556, 344, 343
144, 362, 134,  23, 125, 556, 348, 124, 344
145, 346, 557, 554, 345, 130, 354, 351, 131
146, 557, 558, 555, 554, 354, 355, 352, 351
147, 558, 559, 556, 555, 355, 356, 353, 352
148, 559, 349, 348, 556, 356, 136, 135, 353
149,  63, 363, 360,  64, 346, 557, 554, 345
150, 363, 364, 361, 360, 557, 558, 555, 554
151, 364, 365, 362, 361, 558, 559, 556, 555
152, 365, 133, 134, 362, 559, 349, 348, 556
153, 347, 560, 557, 346, 129, 357, 354, 130
154, 560, 561, 558, 557, 357, 358, 355, 354
155, 561, 562, 559, 558, 358, 359, 356, 355
156, 562, 350, 349, 559, 359, 137, 136, 356
157,  62, 366, 363,  63, 347, 560, 557, 346
158, 366, 367, 364, 363, 560, 561, 558, 557
159, 367, 368, 365, 364, 561, 562, 559, 558
160, 368, 132, 133, 365, 562, 350, 349, 559
161, 103, 311, 560, 347,  12,  78, 357, 129
162, 311, 310, 561, 560,  78,  77, 358, 357
163, 310, 309, 562, 561,  77,  76, 359, 358
164, 309, 101, 350, 562,  76,  11, 137, 359
165,   1,  88, 366,  62, 103, 311, 560, 347
166,  88,  89, 367, 366, 311, 310, 561, 560
167,  89,  90, 368, 367, 310, 309, 562, 561
168,  90,  17, 132, 368, 309, 101, 350, 562
169, 564, 406, 405, 570, 110,  15,  91, 321
170, 565, 564, 570, 571, 109, 110, 321, 322
171, 566, 565, 571, 572, 108, 109, 322, 323
172, 563, 566, 572, 567,  19, 108, 323, 115
173, 570, 405, 404, 573, 321,  91,  92, 324
174, 571, 570, 573, 574, 322, 321, 324, 325
175, 572, 571, 574, 575, 323, 322, 325, 326
176, 567, 572, 575, 568, 115, 323, 326, 116
177, 573, 404, 403, 576, 324,  92,  93, 327
178, 574, 573, 576, 577, 325, 324, 327, 328
179, 575, 574, 577, 578, 326, 325, 328, 329
180, 568, 575, 578, 569, 116, 326, 329, 117
181, 576, 403,  34, 215, 327,  93,   1,  43
182, 577, 576, 215, 216, 328, 327,  43,  42
183, 578, 577, 216, 217, 329, 328,  42,  41
184, 569, 578, 217, 218, 117, 329,  41,   4
185, 407, 406, 564, 583, 138,  15, 110, 373
186, 582, 579, 410, 409, 372, 369, 146, 147
187, 585, 580, 414, 413, 375, 370, 142, 143
188, 580, 563, 567, 581, 370,  19, 115, 371
189, 586, 585, 412, 411, 376, 375, 144, 145
190, 582, 565, 566, 579, 372, 109, 108, 369
191, 583, 564, 565, 582, 373, 110, 109, 372
192, 587, 569, 218, 219, 377, 117,   4,  44
193, 584, 568, 569, 587, 374, 116, 117, 377
194, 581, 567, 568, 584, 371, 115, 116, 374
195, 587, 219,  40, 417, 377,  44,   5, 139
196, 412, 585, 413, 150, 144, 375, 143,  25
197, 580, 581, 415, 414, 370, 371, 141, 142
198, 416, 415, 581, 584, 140, 141, 371, 374
199, 407, 583, 408, 149, 138, 373, 148,  24
200, 409, 408, 583, 582, 147, 148, 373, 372
201, 579, 586, 411, 410, 369, 376, 145, 146
202, 563, 586, 579, 566,  19, 376, 369, 108
203, 563, 580, 585, 586,  19, 370, 375, 376
204, 584, 587, 417, 416, 374, 377, 139, 140
205, 379, 154, 153, 385, 564, 406, 405, 570
206, 380, 379, 385, 386, 565, 564, 570, 571
207, 381, 380, 386, 387, 566, 565, 571, 572
208, 378, 381, 387, 382, 563, 566, 572, 567
209, 385, 153, 152, 388, 570, 405, 404, 573
210, 386, 385, 388, 389, 571, 570, 573, 574
211, 387, 386, 389, 390, 572, 571, 574, 575
212, 382, 387, 390, 383, 567, 572, 575, 568
213, 388, 152, 151, 391, 573, 404, 403, 576
214, 389, 388, 391, 392, 574, 573, 576, 577
215, 390, 389, 392, 393, 575, 574, 577, 578
216, 383, 390, 393, 384, 568, 575, 578, 569
217, 391, 151,   2,  35, 576, 403,  34, 215
218, 392, 391,  35,  36, 577, 576, 215, 216
219, 393, 392,  36,  37, 578, 577, 216, 217
220, 384, 393,  37,  38, 569, 578, 217, 218
221, 155, 154, 379, 398, 407, 406, 564, 583
222, 397, 394, 158, 157, 582, 579, 410, 409
223, 400, 395, 162, 161, 585, 580, 414, 413
224, 395, 378, 382, 396, 580, 563, 567, 581
225, 401, 400, 160, 159, 586, 585, 412, 411
226, 397, 380, 381, 394, 582, 565, 566, 579
227, 398, 379, 380, 397, 583, 564, 565, 582
228, 402, 384,  38,  39, 587, 569, 218, 219
229, 399, 383, 384, 402, 584, 568, 569, 587
230, 396, 382, 383, 399, 581, 567, 568, 584
231, 402,  39,   3, 165, 587, 219,  40, 417
232, 160, 400, 161,  27, 412, 585, 413, 150
233, 395, 396, 163, 162, 580, 581, 415, 414
234, 164, 163, 396, 399, 416, 415, 581, 584
235, 155, 398, 156,  26, 407, 583, 408, 149
236, 157, 156, 398, 397, 409, 408, 583, 582
237, 394, 401, 159, 158, 579, 586, 411, 410
238, 378, 401, 394, 381, 563, 586, 579, 566
239, 378, 395, 400, 401, 563, 580, 585, 586
240, 399, 402, 165, 164, 584, 587, 417, 416
241, 589, 460, 459, 595,  97,  17,  90, 294
242, 595, 459, 458, 596, 294,  90,  89, 295
243, 596, 458, 457, 597, 295,  89,  88, 296
244, 597, 457,  34, 403, 296,  88,   1,  93
245, 590, 589, 595, 598,  98,  97, 294, 297
246, 598, 595, 596, 599, 297, 294, 295, 298
247, 599, 596, 597, 600, 298, 295, 296, 299
248, 600, 597, 403, 404, 299, 296,  93,  92
249, 591, 590, 598, 601,  99,  98, 297, 300
250, 601, 598, 599, 602, 300, 297, 298, 301
251, 602, 599, 600, 603, 301, 298, 299, 302
252, 603, 600, 404, 405, 302, 299,  92,  91
253, 588, 591, 601, 592,  16,  99, 300,  94
254, 592, 601, 602, 593,  94, 300, 301,  95
255, 593, 602, 603, 594,  95, 301, 302,  96
256, 594, 603, 405, 406,  96, 302,  91,  15
257, 407, 149, 456, 608, 138,  24, 166, 422
258, 454, 607, 604, 455, 168, 421, 418, 167
259, 612, 466, 465, 610, 426, 171, 172, 424
260, 462, 611, 605, 463, 175, 425, 419, 174
261, 452, 177, 466, 612, 170,  28, 171, 426
262, 452, 612, 606, 453, 170, 426, 420, 169
263, 588, 592, 607, 606,  16,  94, 421, 420
264, 592, 593, 604, 607,  94,  95, 418, 421
265, 608, 456, 455, 604, 422, 166, 167, 418
266, 611, 462, 178, 461, 425, 175,  29, 176
267, 609, 464, 463, 605, 423, 173, 174, 419
268, 610, 465, 464, 609, 424, 172, 173, 423
269, 588, 606, 612, 610,  16, 420, 426, 424
270, 611, 461, 460, 589, 425, 176,  17,  97
271, 591, 588, 610, 609,  99,  16, 424, 423
272, 590, 591, 609, 605,  98,  99, 423, 419
273, 605, 611, 589, 590, 419, 425,  97,  98
274, 407, 608, 594, 406, 138, 422,  96,  15
275, 593, 594, 608, 604,  95,  96, 422, 418
276, 453, 606, 607, 454, 169, 420, 421, 168
277, 428, 182, 181, 434, 589, 460, 459, 595
278, 434, 181, 180, 435, 595, 459, 458, 596
279, 435, 180, 179, 436, 596, 458, 457, 597
280, 436, 179,   2, 151, 597, 457,  34, 403
281, 429, 428, 434, 437, 590, 589, 595, 598
282, 437, 434, 435, 438, 598, 595, 596, 599
283, 438, 435, 436, 439, 599, 596, 597, 600
284, 439, 436, 151, 152, 600, 597, 403, 404
285, 430, 429, 437, 440, 591, 590, 598, 601
286, 440, 437, 438, 441, 601, 598, 599, 602
287, 441, 438, 439, 442, 602, 599, 600, 603
288, 442, 439, 152, 153, 603, 600, 404, 405
289, 427, 430, 440, 431, 588, 591, 601, 592
290, 431, 440, 441, 432, 592, 601, 602, 593
291, 432, 441, 442, 433, 593, 602, 603, 594
292, 433, 442, 153, 154, 594, 603, 405, 406
293, 155,  26, 193, 447, 407, 149, 456, 608
294, 191, 446, 443, 192, 454, 607, 604, 455
295, 451, 188, 187, 449, 612, 466, 465, 610
296, 184, 450, 444, 185, 462, 611, 605, 463
297, 189,  31, 188, 451, 452, 177, 466, 612
298, 189, 451, 445, 190, 452, 612, 606, 453
299, 427, 431, 446, 445, 588, 592, 607, 606
300, 431, 432, 443, 446, 592, 593, 604, 607
301, 447, 193, 192, 443, 608, 456, 455, 604
302, 450, 184,  30, 183, 611, 462, 178, 461
303, 448, 186, 185, 444, 609, 464, 463, 605
304, 449, 187, 186, 448, 610, 465, 464, 609
305, 427, 445, 451, 449, 588, 606, 612, 610
306, 450, 183, 182, 428, 611, 461, 460, 589
307, 430, 427, 449, 448, 591, 588, 610, 609
308, 429, 430, 448, 444, 590, 591, 609, 605
309, 444, 450, 428, 429, 605, 611, 589, 590
310, 155, 447, 433, 154, 407, 608, 594, 406
311, 432, 433, 447, 443, 593, 594, 608, 604
312, 190, 445, 446, 191, 453, 606, 607, 454
313, 278, 277, 620, 614,  10,  64, 360, 127
314, 614, 620, 621, 615, 127, 360, 361, 126
315, 615, 621, 622, 616, 126, 361, 362, 125
316, 616, 622, 617, 613, 125, 362, 134,  23
317, 277, 276, 623, 620,  64,  63, 363, 360
318, 620, 623, 624, 621, 360, 363, 364, 361
319, 621, 624, 625, 622, 361, 364, 365, 362
320, 622, 625, 618, 617, 362, 365, 133, 134
321, 276, 275, 626, 623,  63,  62, 366, 363
322, 623, 626, 627, 624, 363, 366, 367, 364
323, 624, 627, 628, 625, 364, 367, 368, 365
324, 625, 628, 619, 618, 365, 368, 132, 133
325, 275,  34, 457, 626,  62,   1,  88, 366
326, 626, 457, 458, 627, 366,  88,  89, 367
327, 627, 458, 459, 628, 367,  89,  90, 368
328, 628, 459, 460, 619, 368,  90,  17, 132
329, 279, 278, 614, 633,  65,  10, 127, 471
330, 632, 629, 508, 507, 470, 467, 201, 202
331, 630, 613, 617, 631, 468,  23, 134, 469
332, 635, 637, 510, 509, 473, 475, 199, 200
333, 632, 615, 616, 629, 470, 126, 125, 467
334, 633, 614, 615, 632, 471, 127, 126, 470
335, 636, 619, 460, 461, 474, 132,  17, 176
336, 634, 618, 619, 636, 472, 133, 132, 474
337, 631, 617, 618, 634, 469, 134, 133, 472
338, 636, 461, 178, 505, 474, 176,  29, 194
339, 637, 501, 204, 510, 475, 198,  32, 199
340, 502, 501, 637, 630, 197, 198, 475, 468
341, 631, 503, 502, 630, 469, 196, 197, 468
342, 504, 503, 631, 634, 195, 196, 469, 472
343, 279, 633, 506,  45,  65, 471, 203,   6
344, 507, 506, 633, 632, 202, 203, 471, 470
345, 629, 635, 509, 508, 467, 473, 200, 201
346, 635, 613, 630, 637, 473,  23, 468, 475
347, 613, 635, 629, 616,  23, 473, 467, 125
348, 634, 636, 505, 504, 472, 474, 194, 195
349,  72,  73, 483, 477, 278, 277, 620, 614
350, 477, 483, 484, 478, 614, 620, 621, 615
351, 478, 484, 485, 479, 615, 621, 622, 616
352, 479, 485, 480, 476, 616, 622, 617, 613
353,  73,  74, 486, 483, 277, 276, 623, 620
354, 483, 486, 487, 484, 620, 623, 624, 621
355, 484, 487, 488, 485, 621, 624, 625, 622
356, 485, 488, 481, 480, 622, 625, 618, 617
357,  74,  75, 489, 486, 276, 275, 626, 623
358, 486, 489, 490, 487, 623, 626, 627, 624
359, 487, 490, 491, 488, 624, 627, 628, 625
360, 488, 491, 482, 481, 625, 628, 619, 618
361,  75,   2, 179, 489, 275,  34, 457, 626
362, 489, 179, 180, 490, 626, 457, 458, 627
363, 490, 180, 181, 491, 627, 458, 459, 628
364, 491, 181, 182, 482, 628, 459, 460, 619
365,  71,  72, 477, 496, 279, 278, 614, 633
366, 495, 492, 207, 206, 632, 629, 508, 507
367, 493, 476, 480, 494, 630, 613, 617, 631
368, 498, 500, 209, 208, 635, 637, 510, 509
369, 495, 478, 479, 492, 632, 615, 616, 629
370, 496, 477, 478, 495, 633, 614, 615, 632
371, 499, 482, 182, 183, 636, 619, 460, 461
372, 497, 481, 482, 499, 634, 618, 619, 636
373, 494, 480, 481, 497, 631, 617, 618, 634
374, 499, 183,  30, 214, 636, 461, 178, 505
375, 500, 210,  33, 209, 637, 501, 204, 510
376, 211, 210, 500, 493, 502, 501, 637, 630
377, 494, 212, 211, 493, 631, 503, 502, 630
378, 213, 212, 494, 497, 504, 503, 631, 634
379,  71, 496, 205,   7, 279, 633, 506,  45
380, 206, 205, 496, 495, 507, 506, 633, 632
381, 492, 498, 208, 207, 629, 635, 509, 508
382, 498, 476, 493, 500, 635, 613, 630, 637
383, 476, 498, 492, 479, 613, 635, 629, 616
384, 497, 499, 214, 213, 634, 636, 505, 504
*End Part
**  
**
** ASSEMBLY
**
*Assembly, name=Assembly
**  
*Instance, name=Part-3-1, part=Part-3
*End Instance
**  
*End Assembly
