*Heading
** Job name: mtml Model name: Model-1
** Generated by: Abaqus/CAE 2023
*Preprint, echo=NO, model=NO, history=NO, contact=NO
**
** PARTS
**
*Part, name=Part-3
*Node
      1,           2.,           2.,           4.
      2,           2.,           2.,           1.
      3,           2.,           0.,           1.
      4,           2.,           0.,           4.
      5,           4.,           2.,           1.
      6,           4.,           0.,           1.
      7,           4.,           0.,           4.
      8,           4.,           2.,           4.
      9,           0.,           2.,           4.
     10,           0.,           2.,           1.
     11,           0.,           0.,           1.
     12,           0.,           0.,           4.
     13,           2.,           2.,           0.
     14,           5.,           2.,           0.
     15,           5.,           2.,           1.
     16,           2.,           5.,           0.
     17,           5.,           5.,           0.
     18,           5.,           5.,           1.
     19,           2.,           5.,           1.
     20,           2.,           4.,           1.
     21,           0.,           4.,           4.
     22,           0.,           4.,           1.
     23,           2.,           4.,           4.
     24,           2.,          -1.,           1.
     25,           5.,          -1.,           1.
     26,           2.,          -1.,           0.
     27,           5.,          -1.,           0.
     28,          -1.,           2.,           1.
     29,          -1.,          -1.,           1.
     30,          -1.,          -1.,           0.
     31,          -1.,           2.,           0.
     32,          -1.,           5.,           1.
     33,          -1.,           5.,           0.
     34,           2.,           2.,          3.5
     35,           2.,           2.,           3.
     36,           2.,           2.,          2.5
     37,           2.,           2.,           2.
     38,           2.,           2.,          1.5
     39,           2.,          1.5,           1.
     40,           2.,           1.,           1.
     41,           2.,          0.5,           1.
     42,           2.,           0.,          1.5
     43,           2.,           0.,           2.
     44,           2.,           0.,          2.5
     45,           2.,           0.,           3.
     46,           2.,           0.,          3.5
     47,           2.,          0.5,           4.
     48,           2.,           1.,           4.
     49,           2.,          1.5,           4.
     50,           4.,           2.,          1.5
     51,           4.,           2.,           2.
     52,           4.,           2.,          2.5
     53,           4.,           2.,           3.
     54,           4.,           2.,          3.5
     55,           4.,          0.5,           1.
     56,           4.,           1.,           1.
     57,           4.,          1.5,           1.
     58,           4.,           0.,          3.5
     59,           4.,           0.,           3.
     60,           4.,           0.,          2.5
     61,           4.,           0.,           2.
     62,           4.,           0.,          1.5
     63,           4.,          1.5,           4.
     64,           4.,           1.,           4.
     65,           4.,          0.5,           4.
     66,          2.5,           0.,           4.
     67,           3.,           0.,           4.
     68,          3.5,           0.,           4.
     69,          3.5,           2.,           4.
     70,           3.,           2.,           4.
     71,          2.5,           2.,           4.
     72,          3.5,           0.,           1.
     73,           3.,           0.,           1.
     74,          2.5,           0.,           1.
     75,          2.5,           2.,           1.
     76,           3.,           2.,           1.
     77,          3.5,           2.,           1.
     78,           0.,           2.,          3.5
     79,           0.,           2.,           3.
     80,           0.,           2.,          2.5
     81,           0.,           2.,           2.
     82,           0.,           2.,          1.5
     83,           0.,          1.5,           1.
     84,           0.,           1.,           1.
     85,           0.,          0.5,           1.
     86,           0.,           0.,          1.5
     87,           0.,           0.,           2.
     88,           0.,           0.,          2.5
     89,           0.,           0.,           3.
     90,           0.,           0.,          3.5
     91,           0.,          0.5,           4.
     92,           0.,           1.,           4.
     93,           0.,          1.5,           4.
     94,          0.5,           0.,           4.
     95,           1.,           0.,           4.
     96,          1.5,           0.,           4.
     97,          1.5,           2.,           4.
     98,           1.,           2.,           4.
     99,          0.5,           2.,           4.
    100,          1.5,           0.,           1.
    101,           1.,           0.,           1.
    102,          0.5,           0.,           1.
    103,          0.5,           2.,           1.
    104,           1.,           2.,           1.
    105,          1.5,           2.,           1.
    106,           2.,           2.,          0.5
    107,          2.5,           2.,           0.
    108,           3.,           2.,           0.
    109,          3.5,           2.,           0.
    110,           4.,           2.,           0.
    111,          4.5,           2.,           0.
    112,           5.,           2.,          0.5
    113,          4.5,           2.,           1.
    114,           2.,           5.,          0.5
    115,          4.5,           5.,           0.
    116,           4.,           5.,           0.
    117,          3.5,           5.,           0.
    118,           3.,           5.,           0.
    119,          2.5,           5.,           0.
    120,           5.,           5.,          0.5
    121,          2.5,           5.,           1.
    122,           3.,           5.,           1.
    123,          3.5,           5.,           1.
    124,           4.,           5.,           1.
    125,          4.5,           5.,           1.
    126,           5.,          2.5,           1.
    127,           5.,           3.,           1.
    128,           5.,          3.5,           1.
    129,           5.,           4.,           1.
    130,           5.,          4.5,           1.
    131,           2.,          3.5,           1.
    132,           2.,           3.,           1.
    133,           2.,          2.5,           1.
    134,           2.,          4.5,           1.
    135,           5.,          4.5,           0.
    136,           5.,           4.,           0.
    137,           5.,          3.5,           0.
    138,           5.,           3.,           0.
    139,           5.,          2.5,           0.
    140,           2.,          2.5,           0.
    141,           2.,           3.,           0.
    142,           2.,          3.5,           0.
    143,           2.,           4.,           0.
    144,           2.,          4.5,           0.
    145,           0.,          2.5,           4.
    146,           0.,           3.,           4.
    147,           0.,          3.5,           4.
    148,           0.,           4.,          3.5
    149,           0.,           4.,           3.
    150,           0.,           4.,          2.5
    151,           0.,           4.,           2.
    152,           0.,           4.,          1.5
    153,           0.,          3.5,           1.
    154,           0.,           3.,           1.
    155,           0.,          2.5,           1.
    156,           2.,          3.5,           4.
    157,           2.,           3.,           4.
    158,           2.,          2.5,           4.
    159,           2.,           4.,          1.5
    160,           2.,           4.,           2.
    161,           2.,           4.,          2.5
    162,           2.,           4.,           3.
    163,           2.,           4.,          3.5
    164,          0.5,           4.,           1.
    165,           1.,           4.,           1.
    166,          1.5,           4.,           1.
    167,          1.5,           4.,           4.
    168,           1.,           4.,           4.
    169,          0.5,           4.,           4.
    170,           2.,         -0.5,           1.
    171,          2.5,          -1.,           1.
    172,           3.,          -1.,           1.
    173,          3.5,          -1.,           1.
    174,           4.,          -1.,           1.
    175,          4.5,          -1.,           1.
    176,           5.,         -0.5,           1.
    177,           5.,           0.,           1.
    178,           5.,          0.5,           1.
    179,           5.,           1.,           1.
    180,           5.,          1.5,           1.
    181,           2.,          -1.,          0.5
    182,           5.,          -1.,          0.5
    183,           2.,         -0.5,           0.
    184,           2.,           0.,           0.
    185,           2.,          0.5,           0.
    186,           2.,           1.,           0.
    187,           2.,          1.5,           0.
    188,           5.,          1.5,           0.
    189,           5.,           1.,           0.
    190,           5.,          0.5,           0.
    191,           5.,           0.,           0.
    192,           5.,         -0.5,           0.
    193,          4.5,          -1.,           0.
    194,           4.,          -1.,           0.
    195,          3.5,          -1.,           0.
    196,           3.,          -1.,           0.
    197,          2.5,          -1.,           0.
    198,         -0.5,           2.,           1.
    199,          -1.,          1.5,           1.
    200,          -1.,           1.,           1.
    201,          -1.,          0.5,           1.
    202,          -1.,           0.,           1.
    203,          -1.,         -0.5,           1.
    204,         -0.5,          -1.,           1.
    205,           0.,          -1.,           1.
    206,          0.5,          -1.,           1.
    207,           1.,          -1.,           1.
    208,          1.5,          -1.,           1.
    209,          -1.,          -1.,          0.5
    210,          -1.,           2.,          0.5
    211,          1.5,          -1.,           0.
    212,           1.,          -1.,           0.
    213,          0.5,          -1.,           0.
    214,           0.,          -1.,           0.
    215,         -0.5,          -1.,           0.
    216,          -1.,         -0.5,           0.
    217,          -1.,           0.,           0.
    218,          -1.,          0.5,           0.
    219,          -1.,           1.,           0.
    220,          -1.,          1.5,           0.
    221,         -0.5,           2.,           0.
    222,           0.,           2.,           0.
    223,          0.5,           2.,           0.
    224,           1.,           2.,           0.
    225,          1.5,           2.,           0.
    226,          1.5,           5.,           1.
    227,           1.,           5.,           1.
    228,          0.5,           5.,           1.
    229,           0.,           5.,           1.
    230,         -0.5,           5.,           1.
    231,          -1.,          4.5,           1.
    232,          -1.,           4.,           1.
    233,          -1.,          3.5,           1.
    234,          -1.,           3.,           1.
    235,          -1.,          2.5,           1.
    236,          -1.,           5.,          0.5
    237,          -1.,          2.5,           0.
    238,          -1.,           3.,           0.
    239,          -1.,          3.5,           0.
    240,          -1.,           4.,           0.
    241,          -1.,          4.5,           0.
    242,         -0.5,           5.,           0.
    243,           0.,           5.,           0.
    244,          0.5,           5.,           0.
    245,           1.,           5.,           0.
    246,          1.5,           5.,           0.
    247,           2.,          1.5,          3.5
    248,           2.,          1.5,           3.
    249,           2.,          1.5,          2.5
    250,           2.,          1.5,           2.
    251,           2.,          1.5,          1.5
    252,           2.,           1.,          3.5
    253,           2.,           1.,           3.
    254,           2.,           1.,          2.5
    255,           2.,           1.,           2.
    256,           2.,           1.,          1.5
    257,           2.,          0.5,          3.5
    258,           2.,          0.5,           3.
    259,           2.,          0.5,          2.5
    260,           2.,          0.5,           2.
    261,           2.,          0.5,          1.5
    262,           4.,          1.5,          3.5
    263,           4.,          1.5,           3.
    264,           4.,          1.5,          2.5
    265,           4.,          1.5,           2.
    266,           4.,          1.5,          1.5
    267,           4.,           1.,          3.5
    268,           4.,           1.,           3.
    269,           4.,           1.,          2.5
    270,           4.,           1.,           2.
    271,           4.,           1.,          1.5
    272,           4.,          0.5,          3.5
    273,           4.,          0.5,           3.
    274,           4.,          0.5,          2.5
    275,           4.,          0.5,           2.
    276,           4.,          0.5,          1.5
    277,          2.5,          1.5,           4.
    278,          2.5,           1.,           4.
    279,          2.5,          0.5,           4.
    280,           3.,          1.5,           4.
    281,           3.,           1.,           4.
    282,           3.,          0.5,           4.
    283,          3.5,          1.5,           4.
    284,          3.5,           1.,           4.
    285,          3.5,          0.5,           4.
    286,          2.5,          1.5,           1.
    287,          2.5,           1.,           1.
    288,          2.5,          0.5,           1.
    289,           3.,          1.5,           1.
    290,           3.,           1.,           1.
    291,           3.,          0.5,           1.
    292,          3.5,          1.5,           1.
    293,          3.5,           1.,           1.
    294,          3.5,          0.5,           1.
    295,          2.5,           2.,          3.5
    296,          2.5,           2.,           3.
    297,          2.5,           2.,          2.5
    298,          2.5,           2.,           2.
    299,          2.5,           2.,          1.5
    300,           3.,           2.,          3.5
    301,           3.,           2.,           3.
    302,           3.,           2.,          2.5
    303,           3.,           2.,           2.
    304,           3.,           2.,          1.5
    305,          3.5,           2.,          3.5
    306,          3.5,           2.,           3.
    307,          3.5,           2.,          2.5
    308,          3.5,           2.,           2.
    309,          3.5,           2.,          1.5
    310,          2.5,           0.,          3.5
    311,          2.5,           0.,           3.
    312,          2.5,           0.,          2.5
    313,          2.5,           0.,           2.
    314,          2.5,           0.,          1.5
    315,           3.,           0.,          3.5
    316,           3.,           0.,           3.
    317,           3.,           0.,          2.5
    318,           3.,           0.,           2.
    319,           3.,           0.,          1.5
    320,          3.5,           0.,          3.5
    321,          3.5,           0.,           3.
    322,          3.5,           0.,          2.5
    323,          3.5,           0.,           2.
    324,          3.5,           0.,          1.5
    325,           0.,          1.5,          3.5
    326,           0.,          1.5,           3.
    327,           0.,          1.5,          2.5
    328,           0.,          1.5,           2.
    329,           0.,          1.5,          1.5
    330,           0.,           1.,          3.5
    331,           0.,           1.,           3.
    332,           0.,           1.,          2.5
    333,           0.,           1.,           2.
    334,           0.,           1.,          1.5
    335,           0.,          0.5,          3.5
    336,           0.,          0.5,           3.
    337,           0.,          0.5,          2.5
    338,           0.,          0.5,           2.
    339,           0.,          0.5,          1.5
    340,          1.5,          1.5,           4.
    341,          1.5,           1.,           4.
    342,          1.5,          0.5,           4.
    343,           1.,          1.5,           4.
    344,           1.,           1.,           4.
    345,           1.,          0.5,           4.
    346,          0.5,          1.5,           4.
    347,          0.5,           1.,           4.
    348,          0.5,          0.5,           4.
    349,          1.5,          1.5,           1.
    350,          1.5,           1.,           1.
    351,          1.5,          0.5,           1.
    352,           1.,          1.5,           1.
    353,           1.,           1.,           1.
    354,           1.,          0.5,           1.
    355,          0.5,          1.5,           1.
    356,          0.5,           1.,           1.
    357,          0.5,          0.5,           1.
    358,          1.5,           2.,          3.5
    359,          1.5,           2.,           3.
    360,          1.5,           2.,          2.5
    361,          1.5,           2.,           2.
    362,          1.5,           2.,          1.5
    363,           1.,           2.,          3.5
    364,           1.,           2.,           3.
    365,           1.,           2.,          2.5
    366,           1.,           2.,           2.
    367,           1.,           2.,          1.5
    368,          0.5,           2.,          3.5
    369,          0.5,           2.,           3.
    370,          0.5,           2.,          2.5
    371,          0.5,           2.,           2.
    372,          0.5,           2.,          1.5
    373,          1.5,           0.,          3.5
    374,          1.5,           0.,           3.
    375,          1.5,           0.,          2.5
    376,          1.5,           0.,           2.
    377,          1.5,           0.,          1.5
    378,           1.,           0.,          3.5
    379,           1.,           0.,           3.
    380,           1.,           0.,          2.5
    381,           1.,           0.,           2.
    382,           1.,           0.,          1.5
    383,          0.5,           0.,          3.5
    384,          0.5,           0.,           3.
    385,          0.5,           0.,          2.5
    386,          0.5,           0.,           2.
    387,          0.5,           0.,          1.5
    388,          2.5,           2.,          0.5
    389,           3.,           2.,          0.5
    390,          3.5,           2.,          0.5
    391,           4.,           2.,          0.5
    392,          4.5,           2.,          0.5
    393,          2.5,           5.,          0.5
    394,           3.,           5.,          0.5
    395,          3.5,           5.,          0.5
    396,           4.,           5.,          0.5
    397,          4.5,           5.,          0.5
    398,          2.5,          2.5,           1.
    399,           3.,          2.5,           1.
    400,          3.5,          2.5,           1.
    401,           4.,          2.5,           1.
    402,          4.5,          2.5,           1.
    403,          2.5,           3.,           1.
    404,           3.,           3.,           1.
    405,          3.5,           3.,           1.
    406,           4.,           3.,           1.
    407,          4.5,           3.,           1.
    408,          2.5,          3.5,           1.
    409,           3.,          3.5,           1.
    410,          3.5,          3.5,           1.
    411,           4.,          3.5,           1.
    412,          4.5,          3.5,           1.
    413,          2.5,           4.,           1.
    414,           3.,           4.,           1.
    415,          3.5,           4.,           1.
    416,           4.,           4.,           1.
    417,          4.5,           4.,           1.
    418,          2.5,          4.5,           1.
    419,           3.,          4.5,           1.
    420,          3.5,          4.5,           1.
    421,           4.,          4.5,           1.
    422,          4.5,          4.5,           1.
    423,          2.5,          2.5,           0.
    424,           3.,          2.5,           0.
    425,          3.5,          2.5,           0.
    426,           4.,          2.5,           0.
    427,          4.5,          2.5,           0.
    428,          2.5,           3.,           0.
    429,           3.,           3.,           0.
    430,          3.5,           3.,           0.
    431,           4.,           3.,           0.
    432,          4.5,           3.,           0.
    433,          2.5,          3.5,           0.
    434,           3.,          3.5,           0.
    435,          3.5,          3.5,           0.
    436,           4.,          3.5,           0.
    437,          4.5,          3.5,           0.
    438,          2.5,           4.,           0.
    439,           3.,           4.,           0.
    440,          3.5,           4.,           0.
    441,           4.,           4.,           0.
    442,          4.5,           4.,           0.
    443,          2.5,          4.5,           0.
    444,           3.,          4.5,           0.
    445,          3.5,          4.5,           0.
    446,           4.,          4.5,           0.
    447,          4.5,          4.5,           0.
    448,           2.,          2.5,          0.5
    449,           2.,           3.,          0.5
    450,           2.,          3.5,          0.5
    451,           2.,           4.,          0.5
    452,           2.,          4.5,          0.5
    453,           5.,          2.5,          0.5
    454,           5.,           3.,          0.5
    455,           5.,          3.5,          0.5
    456,           5.,           4.,          0.5
    457,           5.,          4.5,          0.5
    458,           0.,          2.5,          1.5
    459,           0.,          2.5,           2.
    460,           0.,          2.5,          2.5
    461,           0.,          2.5,           3.
    462,           0.,          2.5,          3.5
    463,           0.,           3.,          1.5
    464,           0.,           3.,           2.
    465,           0.,           3.,          2.5
    466,           0.,           3.,           3.
    467,           0.,           3.,          3.5
    468,           0.,          3.5,          1.5
    469,           0.,          3.5,           2.
    470,           0.,          3.5,          2.5
    471,           0.,          3.5,           3.
    472,           0.,          3.5,          3.5
    473,           2.,          2.5,          1.5
    474,           2.,          2.5,           2.
    475,           2.,          2.5,          2.5
    476,           2.,          2.5,           3.
    477,           2.,          2.5,          3.5
    478,           2.,           3.,          1.5
    479,           2.,           3.,           2.
    480,           2.,           3.,          2.5
    481,           2.,           3.,           3.
    482,           2.,           3.,          3.5
    483,           2.,          3.5,          1.5
    484,           2.,          3.5,           2.
    485,           2.,          3.5,          2.5
    486,           2.,          3.5,           3.
    487,           2.,          3.5,          3.5
    488,          0.5,          2.5,           1.
    489,          0.5,           3.,           1.
    490,          0.5,          3.5,           1.
    491,           1.,          2.5,           1.
    492,           1.,           3.,           1.
    493,           1.,          3.5,           1.
    494,          1.5,          2.5,           1.
    495,          1.5,           3.,           1.
    496,          1.5,          3.5,           1.
    497,          0.5,          2.5,           4.
    498,          0.5,           3.,           4.
    499,          0.5,          3.5,           4.
    500,           1.,          2.5,           4.
    501,           1.,           3.,           4.
    502,           1.,          3.5,           4.
    503,          1.5,          2.5,           4.
    504,          1.5,           3.,           4.
    505,          1.5,          3.5,           4.
    506,          0.5,           4.,          1.5
    507,          0.5,           4.,           2.
    508,          0.5,           4.,          2.5
    509,          0.5,           4.,           3.
    510,          0.5,           4.,          3.5
    511,           1.,           4.,          1.5
    512,           1.,           4.,           2.
    513,           1.,           4.,          2.5
    514,           1.,           4.,           3.
    515,           1.,           4.,          3.5
    516,          1.5,           4.,          1.5
    517,          1.5,           4.,           2.
    518,          1.5,           4.,          2.5
    519,          1.5,           4.,           3.
    520,          1.5,           4.,          3.5
    521,   3.00060153, -0.497423053,           1.
    522,   4.49956465,   1.00099993,           1.
    523,   3.99973989, -0.500316799,           1.
    524,   3.50025392, -0.499183744,           1.
    525,   2.50011253, -0.499195218,           1.
    526,   4.49960947,  0.499999166,           1.
    527,   4.49950552, -0.000162607161,           1.
    528,   4.49986362,   1.50018764,           1.
    529,   4.49979687, -0.500129521,           1.
    530,           4.,           0.,           0.
    531,           4.,          1.5,           0.
    532,           4.,           1.,           0.
    533,           4.,          0.5,           0.
    534,          3.5,           0.,           0.
    535,           3.,           0.,           0.
    536,          2.5,           0.,           0.
    537,          2.5,          1.5,           0.
    538,          2.5,           1.,           0.
    539,          2.5,          0.5,           0.
    540,           3.,          1.5,           0.
    541,           3.,           1.,           0.
    542,           3.,          0.5,           0.
    543,          3.5,          1.5,           0.
    544,          3.5,           1.,           0.
    545,          3.5,          0.5,           0.
    546,   3.00060153, -0.497423053,           0.
    547,   4.49956465,   1.00099993,           0.
    548,   3.99973989, -0.500316799,           0.
    549,   3.50025392, -0.499183744,           0.
    550,   2.50011253, -0.499195218,           0.
    551,   4.49960947,  0.499999166,           0.
    552,   4.49950552, -0.000162607161,           0.
    553,   4.49986362,   1.50018764,           0.
    554,   4.49979687, -0.500129521,           0.
    555,           2.,         -0.5,          0.5
    556,           2.,           0.,          0.5
    557,           2.,          0.5,          0.5
    558,           2.,           1.,          0.5
    559,           2.,          1.5,          0.5
    560,          4.5,          -1.,          0.5
    561,           4.,          -1.,          0.5
    562,          3.5,          -1.,          0.5
    563,           3.,          -1.,          0.5
    564,          2.5,          -1.,          0.5
    565,           5.,          1.5,          0.5
    566,           5.,           1.,          0.5
    567,           5.,          0.5,          0.5
    568,           5.,           0.,          0.5
    569,           5.,         -0.5,          0.5
    570,  0.499263436, -0.495168239,           1.
    571, -0.499386132, 0.00025582817,           1.
    572, -0.499516785,  0.500249386,           1.
    573,  0.999734998, -0.497362643,           1.
    574,   1.49995065, -0.499176383,           1.
    575, -0.499757677,   1.00008464,           1.
    576, -6.59080979e-05, -0.498144597,           1.
    577, -0.499707788,   1.50020182,           1.
    578,  -0.49982053, -0.499372035,           1.
    579,           0.,           0.,           0.
    580,          1.5,           0.,           0.
    581,           1.,           0.,           0.
    582,          0.5,           0.,           0.
    583,           0.,          0.5,           0.
    584,           0.,           1.,           0.
    585,           0.,          1.5,           0.
    586,          1.5,          1.5,           0.
    587,          1.5,           1.,           0.
    588,          1.5,          0.5,           0.
    589,           1.,          1.5,           0.
    590,           1.,           1.,           0.
    591,           1.,          0.5,           0.
    592,          0.5,          1.5,           0.
    593,          0.5,           1.,           0.
    594,          0.5,          0.5,           0.
    595,  0.499263436, -0.495168239,           0.
    596, -0.499386132, 0.00025582817,           0.
    597, -0.499516785,  0.500249386,           0.
    598,  0.999734998, -0.497362643,           0.
    599,   1.49995065, -0.499176383,           0.
    600, -0.499757677,   1.00008464,           0.
    601, -6.59080979e-05, -0.498144597,           0.
    602, -0.499707788,   1.50020182,           0.
    603,  -0.49982053, -0.499372035,           0.
    604,          1.5,          -1.,          0.5
    605,           1.,          -1.,          0.5
    606,          0.5,          -1.,          0.5
    607,           0.,          -1.,          0.5
    608,         -0.5,          -1.,          0.5
    609,          1.5,           2.,          0.5
    610,           1.,           2.,          0.5
    611,          0.5,           2.,          0.5
    612,           0.,           2.,          0.5
    613,         -0.5,           2.,          0.5
    614,          -1.,         -0.5,          0.5
    615,          -1.,           0.,          0.5
    616,          -1.,          0.5,          0.5
    617,          -1.,           1.,          0.5
    618,          -1.,          1.5,          0.5
    619,  0.999442816,   4.50131416,           1.
    620, -0.500738621,   2.99971867,           1.
    621, -0.00133225333,   4.49923801,           1.
    622,  0.499645859,   4.50017214,           1.
    623,   1.49989557,   4.50041056,           1.
    624, -0.502893925,   3.49924207,           1.
    625,  -0.50213927,   3.99937034,           1.
    626, -0.499946266,   2.49967623,           1.
    627, -0.500918031,    4.4996438,           1.
    628,           0.,           4.,           0.
    629,           0.,          2.5,           0.
    630,           0.,           3.,           0.
    631,           0.,          3.5,           0.
    632,          0.5,           4.,           0.
    633,           1.,           4.,           0.
    634,          1.5,           4.,           0.
    635,          0.5,          2.5,           0.
    636,          0.5,           3.,           0.
    637,          0.5,          3.5,           0.
    638,           1.,          2.5,           0.
    639,           1.,           3.,           0.
    640,           1.,          3.5,           0.
    641,          1.5,          2.5,           0.
    642,          1.5,           3.,           0.
    643,          1.5,          3.5,           0.
    644,  0.999442816,   4.50131416,           0.
    645, -0.500738621,   2.99971867,           0.
    646, -0.00133225333,   4.49923801,           0.
    647,  0.499645859,   4.50017214,           0.
    648,   1.49989557,   4.50041056,           0.
    649, -0.502893925,   3.49924207,           0.
    650,  -0.50213927,   3.99937034,           0.
    651, -0.499946266,   2.49967623,           0.
    652, -0.500918031,    4.4996438,           0.
    653,          -1.,          2.5,          0.5
    654,          -1.,           3.,          0.5
    655,          -1.,          3.5,          0.5
    656,          -1.,           4.,          0.5
    657,          -1.,          4.5,          0.5
    658,         -0.5,           5.,          0.5
    659,           0.,           5.,          0.5
    660,          0.5,           5.,          0.5
    661,           1.,           5.,          0.5
    662,          1.5,           5.,          0.5
    663,          2.5,          1.5,          3.5
    664,          2.5,          1.5,           3.
    665,          2.5,          1.5,          2.5
    666,          2.5,          1.5,           2.
    667,          2.5,          1.5,          1.5
    668,          2.5,           1.,          3.5
    669,          2.5,           1.,           3.
    670,          2.5,           1.,          2.5
    671,          2.5,           1.,           2.
    672,          2.5,           1.,          1.5
    673,          2.5,          0.5,          3.5
    674,          2.5,          0.5,           3.
    675,          2.5,          0.5,          2.5
    676,          2.5,          0.5,           2.
    677,          2.5,          0.5,          1.5
    678,           3.,          1.5,          3.5
    679,           3.,          1.5,           3.
    680,           3.,          1.5,          2.5
    681,           3.,          1.5,           2.
    682,           3.,          1.5,          1.5
    683,           3.,           1.,          3.5
    684,           3.,           1.,           3.
    685,           3.,           1.,          2.5
    686,           3.,           1.,           2.
    687,           3.,           1.,          1.5
    688,           3.,          0.5,          3.5
    689,           3.,          0.5,           3.
    690,           3.,          0.5,          2.5
    691,           3.,          0.5,           2.
    692,           3.,          0.5,          1.5
    693,          3.5,          1.5,          3.5
    694,          3.5,          1.5,           3.
    695,          3.5,          1.5,          2.5
    696,          3.5,          1.5,           2.
    697,          3.5,          1.5,          1.5
    698,          3.5,           1.,          3.5
    699,          3.5,           1.,           3.
    700,          3.5,           1.,          2.5
    701,          3.5,           1.,           2.
    702,          3.5,           1.,          1.5
    703,          3.5,          0.5,          3.5
    704,          3.5,          0.5,           3.
    705,          3.5,          0.5,          2.5
    706,          3.5,          0.5,           2.
    707,          3.5,          0.5,          1.5
    708,          1.5,          1.5,          3.5
    709,          1.5,          1.5,           3.
    710,          1.5,          1.5,          2.5
    711,          1.5,          1.5,           2.
    712,          1.5,          1.5,          1.5
    713,          1.5,           1.,          3.5
    714,          1.5,           1.,           3.
    715,          1.5,           1.,          2.5
    716,          1.5,           1.,           2.
    717,          1.5,           1.,          1.5
    718,          1.5,          0.5,          3.5
    719,          1.5,          0.5,           3.
    720,          1.5,          0.5,          2.5
    721,          1.5,          0.5,           2.
    722,          1.5,          0.5,          1.5
    723,           1.,          1.5,          3.5
    724,           1.,          1.5,           3.
    725,           1.,          1.5,          2.5
    726,           1.,          1.5,           2.
    727,           1.,          1.5,          1.5
    728,           1.,           1.,          3.5
    729,           1.,           1.,           3.
    730,           1.,           1.,          2.5
    731,           1.,           1.,           2.
    732,           1.,           1.,          1.5
    733,           1.,          0.5,          3.5
    734,           1.,          0.5,           3.
    735,           1.,          0.5,          2.5
    736,           1.,          0.5,           2.
    737,           1.,          0.5,          1.5
    738,          0.5,          1.5,          3.5
    739,          0.5,          1.5,           3.
    740,          0.5,          1.5,          2.5
    741,          0.5,          1.5,           2.
    742,          0.5,          1.5,          1.5
    743,          0.5,           1.,          3.5
    744,          0.5,           1.,           3.
    745,          0.5,           1.,          2.5
    746,          0.5,           1.,           2.
    747,          0.5,           1.,          1.5
    748,          0.5,          0.5,          3.5
    749,          0.5,          0.5,           3.
    750,          0.5,          0.5,          2.5
    751,          0.5,          0.5,           2.
    752,          0.5,          0.5,          1.5
    753,          2.5,          2.5,          0.5
    754,           3.,          2.5,          0.5
    755,          3.5,          2.5,          0.5
    756,           4.,          2.5,          0.5
    757,          4.5,          2.5,          0.5
    758,          2.5,           3.,          0.5
    759,           3.,           3.,          0.5
    760,          3.5,           3.,          0.5
    761,           4.,           3.,          0.5
    762,          4.5,           3.,          0.5
    763,          2.5,          3.5,          0.5
    764,           3.,          3.5,          0.5
    765,          3.5,          3.5,          0.5
    766,           4.,          3.5,          0.5
    767,          4.5,          3.5,          0.5
    768,          2.5,           4.,          0.5
    769,           3.,           4.,          0.5
    770,          3.5,           4.,          0.5
    771,           4.,           4.,          0.5
    772,          4.5,           4.,          0.5
    773,          2.5,          4.5,          0.5
    774,           3.,          4.5,          0.5
    775,          3.5,          4.5,          0.5
    776,           4.,          4.5,          0.5
    777,          4.5,          4.5,          0.5
    778,          0.5,          2.5,          1.5
    779,          0.5,          2.5,           2.
    780,          0.5,          2.5,          2.5
    781,          0.5,          2.5,           3.
    782,          0.5,          2.5,          3.5
    783,          0.5,           3.,          1.5
    784,          0.5,           3.,           2.
    785,          0.5,           3.,          2.5
    786,          0.5,           3.,           3.
    787,          0.5,           3.,          3.5
    788,          0.5,          3.5,          1.5
    789,          0.5,          3.5,           2.
    790,          0.5,          3.5,          2.5
    791,          0.5,          3.5,           3.
    792,          0.5,          3.5,          3.5
    793,           1.,          2.5,          1.5
    794,           1.,          2.5,           2.
    795,           1.,          2.5,          2.5
    796,           1.,          2.5,           3.
    797,           1.,          2.5,          3.5
    798,           1.,           3.,          1.5
    799,           1.,           3.,           2.
    800,           1.,           3.,          2.5
    801,           1.,           3.,           3.
    802,           1.,           3.,          3.5
    803,           1.,          3.5,          1.5
    804,           1.,          3.5,           2.
    805,           1.,          3.5,          2.5
    806,           1.,          3.5,           3.
    807,           1.,          3.5,          3.5
    808,          1.5,          2.5,          1.5
    809,          1.5,          2.5,           2.
    810,          1.5,          2.5,          2.5
    811,          1.5,          2.5,           3.
    812,          1.5,          2.5,          3.5
    813,          1.5,           3.,          1.5
    814,          1.5,           3.,           2.
    815,          1.5,           3.,          2.5
    816,          1.5,           3.,           3.
    817,          1.5,           3.,          3.5
    818,          1.5,          3.5,          1.5
    819,          1.5,          3.5,           2.
    820,          1.5,          3.5,          2.5
    821,          1.5,          3.5,           3.
    822,          1.5,          3.5,          3.5
    823,           4.,           0.,          0.5
    824,           4.,          1.5,          0.5
    825,           4.,           1.,          0.5
    826,           4.,          0.5,          0.5
    827,          3.5,           0.,          0.5
    828,           3.,           0.,          0.5
    829,          2.5,           0.,          0.5
    830,          2.5,          1.5,          0.5
    831,          2.5,           1.,          0.5
    832,          2.5,          0.5,          0.5
    833,           3.,          1.5,          0.5
    834,           3.,           1.,          0.5
    835,           3.,          0.5,          0.5
    836,          3.5,          1.5,          0.5
    837,          3.5,           1.,          0.5
    838,          3.5,          0.5,          0.5
    839,   3.00060153, -0.497423053,          0.5
    840,   4.49956465,   1.00099993,          0.5
    841,   3.99973989, -0.500316799,          0.5
    842,   3.50025392, -0.499183744,          0.5
    843,   2.50011253, -0.499195218,          0.5
    844,   4.49960947,  0.499999166,          0.5
    845,   4.49950552, -0.000162607161,          0.5
    846,   4.49986362,   1.50018764,          0.5
    847,   4.49979687, -0.500129521,          0.5
    848,           0.,           0.,          0.5
    849,          1.5,           0.,          0.5
    850,           1.,           0.,          0.5
    851,          0.5,           0.,          0.5
    852,           0.,          0.5,          0.5
    853,           0.,           1.,          0.5
    854,           0.,          1.5,          0.5
    855,          1.5,          1.5,          0.5
    856,          1.5,           1.,          0.5
    857,          1.5,          0.5,          0.5
    858,           1.,          1.5,          0.5
    859,           1.,           1.,          0.5
    860,           1.,          0.5,          0.5
    861,          0.5,          1.5,          0.5
    862,          0.5,           1.,          0.5
    863,          0.5,          0.5,          0.5
    864,  0.499263436, -0.495168239,          0.5
    865, -0.499386132, 0.00025582817,          0.5
    866, -0.499516785,  0.500249386,          0.5
    867,  0.999734998, -0.497362643,          0.5
    868,   1.49995065, -0.499176383,          0.5
    869, -0.499757677,   1.00008464,          0.5
    870, -6.59080979e-05, -0.498144597,          0.5
    871, -0.499707788,   1.50020182,          0.5
    872,  -0.49982053, -0.499372035,          0.5
    873,           0.,           4.,          0.5
    874,           0.,          2.5,          0.5
    875,           0.,           3.,          0.5
    876,           0.,          3.5,          0.5
    877,          0.5,           4.,          0.5
    878,           1.,           4.,          0.5
    879,          1.5,           4.,          0.5
    880,          0.5,          2.5,          0.5
    881,          0.5,           3.,          0.5
    882,          0.5,          3.5,          0.5
    883,           1.,          2.5,          0.5
    884,           1.,           3.,          0.5
    885,           1.,          3.5,          0.5
    886,          1.5,          2.5,          0.5
    887,          1.5,           3.,          0.5
    888,          1.5,          3.5,          0.5
    889,  0.999442816,   4.50131416,          0.5
    890, -0.500738621,   2.99971867,          0.5
    891, -0.00133225333,   4.49923801,          0.5
    892,  0.499645859,   4.50017214,          0.5
    893,   1.49989557,   4.50041056,          0.5
    894, -0.502893925,   3.49924207,          0.5
    895,  -0.50213927,   3.99937034,          0.5
    896, -0.499946266,   2.49967623,          0.5
    897, -0.500918031,    4.4996438,          0.5
*Element, type=C3D8R
 1,  71, 295, 663, 277,   1,  34, 247,  49
 2, 295, 296, 664, 663,  34,  35, 248, 247
 3, 296, 297, 665, 664,  35,  36, 249, 248
 4, 297, 298, 666, 665,  36,  37, 250, 249
 5, 298, 299, 667, 666,  37,  38, 251, 250
 6, 299,  75, 286, 667,  38,   2,  39, 251
 7, 277, 663, 668, 278,  49, 247, 252,  48
 8, 663, 664, 669, 668, 247, 248, 253, 252
 9, 664, 665, 670, 669, 248, 249, 254, 253
10, 665, 666, 671, 670, 249, 250, 255, 254
11, 666, 667, 672, 671, 250, 251, 256, 255
12, 667, 286, 287, 672, 251,  39,  40, 256
13, 278, 668, 673, 279,  48, 252, 257,  47
14, 668, 669, 674, 673, 252, 253, 258, 257
15, 669, 670, 675, 674, 253, 254, 259, 258
16, 670, 671, 676, 675, 254, 255, 260, 259
17, 671, 672, 677, 676, 255, 256, 261, 260
18, 672, 287, 288, 677, 256,  40,  41, 261
19, 279, 673, 310,  66,  47, 257,  46,   4
20, 673, 674, 311, 310, 257, 258,  45,  46
21, 674, 675, 312, 311, 258, 259,  44,  45
22, 675, 676, 313, 312, 259, 260,  43,  44
23, 676, 677, 314, 313, 260, 261,  42,  43
24, 677, 288,  74, 314, 261,  41,   3,  42
25,  70, 300, 678, 280,  71, 295, 663, 277
26, 300, 301, 679, 678, 295, 296, 664, 663
27, 301, 302, 680, 679, 296, 297, 665, 664
28, 302, 303, 681, 680, 297, 298, 666, 665
29, 303, 304, 682, 681, 298, 299, 667, 666
30, 304,  76, 289, 682, 299,  75, 286, 667
31, 280, 678, 683, 281, 277, 663, 668, 278
32, 678, 679, 684, 683, 663, 664, 669, 668
33, 679, 680, 685, 684, 664, 665, 670, 669
34, 680, 681, 686, 685, 665, 666, 671, 670
35, 681, 682, 687, 686, 666, 667, 672, 671
36, 682, 289, 290, 687, 667, 286, 287, 672
37, 281, 683, 688, 282, 278, 668, 673, 279
38, 683, 684, 689, 688, 668, 669, 674, 673
39, 684, 685, 690, 689, 669, 670, 675, 674
40, 685, 686, 691, 690, 670, 671, 676, 675
41, 686, 687, 692, 691, 671, 672, 677, 676
42, 687, 290, 291, 692, 672, 287, 288, 677
43, 282, 688, 315,  67, 279, 673, 310,  66
44, 688, 689, 316, 315, 673, 674, 311, 310
45, 689, 690, 317, 316, 674, 675, 312, 311
46, 690, 691, 318, 317, 675, 676, 313, 312
47, 691, 692, 319, 318, 676, 677, 314, 313
48, 692, 291,  73, 319, 677, 288,  74, 314
49,  69, 305, 693, 283,  70, 300, 678, 280
50, 305, 306, 694, 693, 300, 301, 679, 678
51, 306, 307, 695, 694, 301, 302, 680, 679
52, 307, 308, 696, 695, 302, 303, 681, 680
53, 308, 309, 697, 696, 303, 304, 682, 681
54, 309,  77, 292, 697, 304,  76, 289, 682
55, 283, 693, 698, 284, 280, 678, 683, 281
56, 693, 694, 699, 698, 678, 679, 684, 683
57, 694, 695, 700, 699, 679, 680, 685, 684
58, 695, 696, 701, 700, 680, 681, 686, 685
59, 696, 697, 702, 701, 681, 682, 687, 686
60, 697, 292, 293, 702, 682, 289, 290, 687
61, 284, 698, 703, 285, 281, 683, 688, 282
62, 698, 699, 704, 703, 683, 684, 689, 688
63, 699, 700, 705, 704, 684, 685, 690, 689
64, 700, 701, 706, 705, 685, 686, 691, 690
65, 701, 702, 707, 706, 686, 687, 692, 691
66, 702, 293, 294, 707, 687, 290, 291, 692
67, 285, 703, 320,  68, 282, 688, 315,  67
68, 703, 704, 321, 320, 688, 689, 316, 315
69, 704, 705, 322, 321, 689, 690, 317, 316
70, 705, 706, 323, 322, 690, 691, 318, 317
71, 706, 707, 324, 323, 691, 692, 319, 318
72, 707, 294,  72, 324, 692, 291,  73, 319
73,   8,  54, 262,  63,  69, 305, 693, 283
74,  54,  53, 263, 262, 305, 306, 694, 693
75,  53,  52, 264, 263, 306, 307, 695, 694
76,  52,  51, 265, 264, 307, 308, 696, 695
77,  51,  50, 266, 265, 308, 309, 697, 696
78,  50,   5,  57, 266, 309,  77, 292, 697
79,  63, 262, 267,  64, 283, 693, 698, 284
80, 262, 263, 268, 267, 693, 694, 699, 698
81, 263, 264, 269, 268, 694, 695, 700, 699
82, 264, 265, 270, 269, 695, 696, 701, 700
83, 265, 266, 271, 270, 696, 697, 702, 701
84, 266,  57,  56, 271, 697, 292, 293, 702
85,  64, 267, 272,  65, 284, 698, 703, 285
86, 267, 268, 273, 272, 698, 699, 704, 703
87, 268, 269, 274, 273, 699, 700, 705, 704
88, 269, 270, 275, 274, 700, 701, 706, 705
89, 270, 271, 276, 275, 701, 702, 707, 706
90, 271,  56,  55, 276, 702, 293, 294, 707
91,  65, 272,  58,   7, 285, 703, 320,  68
92, 272, 273,  59,  58, 703, 704, 321, 320
93, 273, 274,  60,  59, 704, 705, 322, 321
94, 274, 275,  61,  60, 705, 706, 323, 322
95, 275, 276,  62,  61, 706, 707, 324, 323
96, 276,  55,   6,  62, 707, 294,  72, 324
 97,   1,  34, 247,  49,  97, 358, 708, 340
 98,  34,  35, 248, 247, 358, 359, 709, 708
 99,  35,  36, 249, 248, 359, 360, 710, 709
100,  36,  37, 250, 249, 360, 361, 711, 710
101,  37,  38, 251, 250, 361, 362, 712, 711
102,  38,   2,  39, 251, 362, 105, 349, 712
103,  49, 247, 252,  48, 340, 708, 713, 341
104, 247, 248, 253, 252, 708, 709, 714, 713
105, 248, 249, 254, 253, 709, 710, 715, 714
106, 249, 250, 255, 254, 710, 711, 716, 715
107, 250, 251, 256, 255, 711, 712, 717, 716
108, 251,  39,  40, 256, 712, 349, 350, 717
109,  48, 252, 257,  47, 341, 713, 718, 342
110, 252, 253, 258, 257, 713, 714, 719, 718
111, 253, 254, 259, 258, 714, 715, 720, 719
112, 254, 255, 260, 259, 715, 716, 721, 720
113, 255, 256, 261, 260, 716, 717, 722, 721
114, 256,  40,  41, 261, 717, 350, 351, 722
115,  47, 257,  46,   4, 342, 718, 373,  96
116, 257, 258,  45,  46, 718, 719, 374, 373
117, 258, 259,  44,  45, 719, 720, 375, 374
118, 259, 260,  43,  44, 720, 721, 376, 375
119, 260, 261,  42,  43, 721, 722, 377, 376
120, 261,  41,   3,  42, 722, 351, 100, 377
121,  97, 358, 708, 340,  98, 363, 723, 343
122, 358, 359, 709, 708, 363, 364, 724, 723
123, 359, 360, 710, 709, 364, 365, 725, 724
124, 360, 361, 711, 710, 365, 366, 726, 725
125, 361, 362, 712, 711, 366, 367, 727, 726
126, 362, 105, 349, 712, 367, 104, 352, 727
127, 340, 708, 713, 341, 343, 723, 728, 344
128, 708, 709, 714, 713, 723, 724, 729, 728
129, 709, 710, 715, 714, 724, 725, 730, 729
130, 710, 711, 716, 715, 725, 726, 731, 730
131, 711, 712, 717, 716, 726, 727, 732, 731
132, 712, 349, 350, 717, 727, 352, 353, 732
133, 341, 713, 718, 342, 344, 728, 733, 345
134, 713, 714, 719, 718, 728, 729, 734, 733
135, 714, 715, 720, 719, 729, 730, 735, 734
136, 715, 716, 721, 720, 730, 731, 736, 735
137, 716, 717, 722, 721, 731, 732, 737, 736
138, 717, 350, 351, 722, 732, 353, 354, 737
139, 342, 718, 373,  96, 345, 733, 378,  95
140, 718, 719, 374, 373, 733, 734, 379, 378
141, 719, 720, 375, 374, 734, 735, 380, 379
142, 720, 721, 376, 375, 735, 736, 381, 380
143, 721, 722, 377, 376, 736, 737, 382, 381
144, 722, 351, 100, 377, 737, 354, 101, 382
145,  98, 363, 723, 343,  99, 368, 738, 346
146, 363, 364, 724, 723, 368, 369, 739, 738
147, 364, 365, 725, 724, 369, 370, 740, 739
148, 365, 366, 726, 725, 370, 371, 741, 740
149, 366, 367, 727, 726, 371, 372, 742, 741
150, 367, 104, 352, 727, 372, 103, 355, 742
151, 343, 723, 728, 344, 346, 738, 743, 347
152, 723, 724, 729, 728, 738, 739, 744, 743
153, 724, 725, 730, 729, 739, 740, 745, 744
154, 725, 726, 731, 730, 740, 741, 746, 745
155, 726, 727, 732, 731, 741, 742, 747, 746
156, 727, 352, 353, 732, 742, 355, 356, 747
157, 344, 728, 733, 345, 347, 743, 748, 348
158, 728, 729, 734, 733, 743, 744, 749, 748
159, 729, 730, 735, 734, 744, 745, 750, 749
160, 730, 731, 736, 735, 745, 746, 751, 750
161, 731, 732, 737, 736, 746, 747, 752, 751
162, 732, 353, 354, 737, 747, 356, 357, 752
163, 345, 733, 378,  95, 348, 748, 383,  94
164, 733, 734, 379, 378, 748, 749, 384, 383
165, 734, 735, 380, 379, 749, 750, 385, 384
166, 735, 736, 381, 380, 750, 751, 386, 385
167, 736, 737, 382, 381, 751, 752, 387, 386
168, 737, 354, 101, 382, 752, 357, 102, 387
169,  99, 368, 738, 346,   9,  78, 325,  93
170, 368, 369, 739, 738,  78,  79, 326, 325
171, 369, 370, 740, 739,  79,  80, 327, 326
172, 370, 371, 741, 740,  80,  81, 328, 327
173, 371, 372, 742, 741,  81,  82, 329, 328
174, 372, 103, 355, 742,  82,  10,  83, 329
175, 346, 738, 743, 347,  93, 325, 330,  92
176, 738, 739, 744, 743, 325, 326, 331, 330
177, 739, 740, 745, 744, 326, 327, 332, 331
178, 740, 741, 746, 745, 327, 328, 333, 332
179, 741, 742, 747, 746, 328, 329, 334, 333
180, 742, 355, 356, 747, 329,  83,  84, 334
181, 347, 743, 748, 348,  92, 330, 335,  91
182, 743, 744, 749, 748, 330, 331, 336, 335
183, 744, 745, 750, 749, 331, 332, 337, 336
184, 745, 746, 751, 750, 332, 333, 338, 337
185, 746, 747, 752, 751, 333, 334, 339, 338
186, 747, 356, 357, 752, 334,  84,  85, 339
187, 348, 748, 383,  94,  91, 335,  90,  12
188, 748, 749, 384, 383, 335, 336,  89,  90
189, 749, 750, 385, 384, 336, 337,  88,  89
190, 750, 751, 386, 385, 337, 338,  87,  88
191, 751, 752, 387, 386, 338, 339,  86,  87
192, 752, 357, 102, 387, 339,  85,  11,  86
193, 133, 448, 753, 398,   2, 106, 388,  75
194, 448, 140, 423, 753, 106,  13, 107, 388
195, 398, 753, 754, 399,  75, 388, 389,  76
196, 753, 423, 424, 754, 388, 107, 108, 389
197, 399, 754, 755, 400,  76, 389, 390,  77
198, 754, 424, 425, 755, 389, 108, 109, 390
199, 400, 755, 756, 401,  77, 390, 391,   5
200, 755, 425, 426, 756, 390, 109, 110, 391
201, 401, 756, 757, 402,   5, 391, 392, 113
202, 756, 426, 427, 757, 391, 110, 111, 392
203, 402, 757, 453, 126, 113, 392, 112,  15
204, 757, 427, 139, 453, 392, 111,  14, 112
205, 132, 449, 758, 403, 133, 448, 753, 398
206, 449, 141, 428, 758, 448, 140, 423, 753
207, 403, 758, 759, 404, 398, 753, 754, 399
208, 758, 428, 429, 759, 753, 423, 424, 754
209, 404, 759, 760, 405, 399, 754, 755, 400
210, 759, 429, 430, 760, 754, 424, 425, 755
211, 405, 760, 761, 406, 400, 755, 756, 401
212, 760, 430, 431, 761, 755, 425, 426, 756
213, 406, 761, 762, 407, 401, 756, 757, 402
214, 761, 431, 432, 762, 756, 426, 427, 757
215, 407, 762, 454, 127, 402, 757, 453, 126
216, 762, 432, 138, 454, 757, 427, 139, 453
217, 131, 450, 763, 408, 132, 449, 758, 403
218, 450, 142, 433, 763, 449, 141, 428, 758
219, 408, 763, 764, 409, 403, 758, 759, 404
220, 763, 433, 434, 764, 758, 428, 429, 759
221, 409, 764, 765, 410, 404, 759, 760, 405
222, 764, 434, 435, 765, 759, 429, 430, 760
223, 410, 765, 766, 411, 405, 760, 761, 406
224, 765, 435, 436, 766, 760, 430, 431, 761
225, 411, 766, 767, 412, 406, 761, 762, 407
226, 766, 436, 437, 767, 761, 431, 432, 762
227, 412, 767, 455, 128, 407, 762, 454, 127
228, 767, 437, 137, 455, 762, 432, 138, 454
229,  20, 451, 768, 413, 131, 450, 763, 408
230, 451, 143, 438, 768, 450, 142, 433, 763
231, 413, 768, 769, 414, 408, 763, 764, 409
232, 768, 438, 439, 769, 763, 433, 434, 764
233, 414, 769, 770, 415, 409, 764, 765, 410
234, 769, 439, 440, 770, 764, 434, 435, 765
235, 415, 770, 771, 416, 410, 765, 766, 411
236, 770, 440, 441, 771, 765, 435, 436, 766
237, 416, 771, 772, 417, 411, 766, 767, 412
238, 771, 441, 442, 772, 766, 436, 437, 767
239, 417, 772, 456, 129, 412, 767, 455, 128
240, 772, 442, 136, 456, 767, 437, 137, 455
241, 134, 452, 773, 418,  20, 451, 768, 413
242, 452, 144, 443, 773, 451, 143, 438, 768
243, 418, 773, 774, 419, 413, 768, 769, 414
244, 773, 443, 444, 774, 768, 438, 439, 769
245, 419, 774, 775, 420, 414, 769, 770, 415
246, 774, 444, 445, 775, 769, 439, 440, 770
247, 420, 775, 776, 421, 415, 770, 771, 416
248, 775, 445, 446, 776, 770, 440, 441, 771
249, 421, 776, 777, 422, 416, 771, 772, 417
250, 776, 446, 447, 777, 771, 441, 442, 772
251, 422, 777, 457, 130, 417, 772, 456, 129
252, 777, 447, 135, 457, 772, 442, 136, 456
253,  19, 114, 393, 121, 134, 452, 773, 418
254, 114,  16, 119, 393, 452, 144, 443, 773
255, 121, 393, 394, 122, 418, 773, 774, 419
256, 393, 119, 118, 394, 773, 443, 444, 774
257, 122, 394, 395, 123, 419, 774, 775, 420
258, 394, 118, 117, 395, 774, 444, 445, 775
259, 123, 395, 396, 124, 420, 775, 776, 421
260, 395, 117, 116, 396, 775, 445, 446, 776
261, 124, 396, 397, 125, 421, 776, 777, 422
262, 396, 116, 115, 397, 776, 446, 447, 777
263, 125, 397, 120,  18, 422, 777, 457, 130
264, 397, 115,  17, 120, 777, 447, 135, 457
265, 103, 372, 778, 488,  10,  82, 458, 155
266, 372, 371, 779, 778,  82,  81, 459, 458
267, 371, 370, 780, 779,  81,  80, 460, 459
268, 370, 369, 781, 780,  80,  79, 461, 460
269, 369, 368, 782, 781,  79,  78, 462, 461
270, 368,  99, 497, 782,  78,   9, 145, 462
271, 488, 778, 783, 489, 155, 458, 463, 154
272, 778, 779, 784, 783, 458, 459, 464, 463
273, 779, 780, 785, 784, 459, 460, 465, 464
274, 780, 781, 786, 785, 460, 461, 466, 465
275, 781, 782, 787, 786, 461, 462, 467, 466
276, 782, 497, 498, 787, 462, 145, 146, 467
277, 489, 783, 788, 490, 154, 463, 468, 153
278, 783, 784, 789, 788, 463, 464, 469, 468
279, 784, 785, 790, 789, 464, 465, 470, 469
280, 785, 786, 791, 790, 465, 466, 471, 470
281, 786, 787, 792, 791, 466, 467, 472, 471
282, 787, 498, 499, 792, 467, 146, 147, 472
283, 490, 788, 506, 164, 153, 468, 152,  22
284, 788, 789, 507, 506, 468, 469, 151, 152
285, 789, 790, 508, 507, 469, 470, 150, 151
286, 790, 791, 509, 508, 470, 471, 149, 150
287, 791, 792, 510, 509, 471, 472, 148, 149
288, 792, 499, 169, 510, 472, 147,  21, 148
289, 104, 367, 793, 491, 103, 372, 778, 488
290, 367, 366, 794, 793, 372, 371, 779, 778
291, 366, 365, 795, 794, 371, 370, 780, 779
292, 365, 364, 796, 795, 370, 369, 781, 780
293, 364, 363, 797, 796, 369, 368, 782, 781
294, 363,  98, 500, 797, 368,  99, 497, 782
295, 491, 793, 798, 492, 488, 778, 783, 489
296, 793, 794, 799, 798, 778, 779, 784, 783
297, 794, 795, 800, 799, 779, 780, 785, 784
298, 795, 796, 801, 800, 780, 781, 786, 785
299, 796, 797, 802, 801, 781, 782, 787, 786
300, 797, 500, 501, 802, 782, 497, 498, 787
301, 492, 798, 803, 493, 489, 783, 788, 490
302, 798, 799, 804, 803, 783, 784, 789, 788
303, 799, 800, 805, 804, 784, 785, 790, 789
304, 800, 801, 806, 805, 785, 786, 791, 790
305, 801, 802, 807, 806, 786, 787, 792, 791
306, 802, 501, 502, 807, 787, 498, 499, 792
307, 493, 803, 511, 165, 490, 788, 506, 164
308, 803, 804, 512, 511, 788, 789, 507, 506
309, 804, 805, 513, 512, 789, 790, 508, 507
310, 805, 806, 514, 513, 790, 791, 509, 508
311, 806, 807, 515, 514, 791, 792, 510, 509
312, 807, 502, 168, 515, 792, 499, 169, 510
313, 105, 362, 808, 494, 104, 367, 793, 491
314, 362, 361, 809, 808, 367, 366, 794, 793
315, 361, 360, 810, 809, 366, 365, 795, 794
316, 360, 359, 811, 810, 365, 364, 796, 795
317, 359, 358, 812, 811, 364, 363, 797, 796
318, 358,  97, 503, 812, 363,  98, 500, 797
319, 494, 808, 813, 495, 491, 793, 798, 492
320, 808, 809, 814, 813, 793, 794, 799, 798
321, 809, 810, 815, 814, 794, 795, 800, 799
322, 810, 811, 816, 815, 795, 796, 801, 800
323, 811, 812, 817, 816, 796, 797, 802, 801
324, 812, 503, 504, 817, 797, 500, 501, 802
325, 495, 813, 818, 496, 492, 798, 803, 493
326, 813, 814, 819, 818, 798, 799, 804, 803
327, 814, 815, 820, 819, 799, 800, 805, 804
328, 815, 816, 821, 820, 800, 801, 806, 805
329, 816, 817, 822, 821, 801, 802, 807, 806
330, 817, 504, 505, 822, 802, 501, 502, 807
331, 496, 818, 516, 166, 493, 803, 511, 165
332, 818, 819, 517, 516, 803, 804, 512, 511
333, 819, 820, 518, 517, 804, 805, 513, 512
334, 820, 821, 519, 518, 805, 806, 514, 513
335, 821, 822, 520, 519, 806, 807, 515, 514
336, 822, 505, 167, 520, 807, 502, 168, 515
337,   2,  38, 473, 133, 105, 362, 808, 494
338,  38,  37, 474, 473, 362, 361, 809, 808
339,  37,  36, 475, 474, 361, 360, 810, 809
340,  36,  35, 476, 475, 360, 359, 811, 810
341,  35,  34, 477, 476, 359, 358, 812, 811
342,  34,   1, 158, 477, 358,  97, 503, 812
343, 133, 473, 478, 132, 494, 808, 813, 495
344, 473, 474, 479, 478, 808, 809, 814, 813
345, 474, 475, 480, 479, 809, 810, 815, 814
346, 475, 476, 481, 480, 810, 811, 816, 815
347, 476, 477, 482, 481, 811, 812, 817, 816
348, 477, 158, 157, 482, 812, 503, 504, 817
349, 132, 478, 483, 131, 495, 813, 818, 496
350, 478, 479, 484, 483, 813, 814, 819, 818
351, 479, 480, 485, 484, 814, 815, 820, 819
352, 480, 481, 486, 485, 815, 816, 821, 820
353, 481, 482, 487, 486, 816, 817, 822, 821
354, 482, 157, 156, 487, 817, 504, 505, 822
355, 131, 483, 159,  20, 496, 818, 516, 166
356, 483, 484, 160, 159, 818, 819, 517, 516
357, 484, 485, 161, 160, 819, 820, 518, 517
358, 485, 486, 162, 161, 820, 821, 519, 518
359, 486, 487, 163, 162, 821, 822, 520, 519
360, 487, 156,  23, 163, 822, 505, 167, 520
361,  75, 286,  39,   2, 388, 830, 559, 106
362, 286, 287,  40,  39, 830, 831, 558, 559
363, 287, 288,  41,  40, 831, 832, 557, 558
364, 288,  74,   3,  41, 832, 829, 556, 557
365,  76, 289, 286,  75, 389, 833, 830, 388
366, 289, 290, 287, 286, 833, 834, 831, 830
367, 290, 291, 288, 287, 834, 835, 832, 831
368, 291,  73,  74, 288, 835, 828, 829, 832
369,  77, 292, 289,  76, 390, 836, 833, 389
370, 292, 293, 290, 289, 836, 837, 834, 833
371, 293, 294, 291, 290, 837, 838, 835, 834
372, 294,  72,  73, 291, 838, 827, 828, 835
373,   5,  57, 292,  77, 391, 824, 836, 390
374,  57,  56, 293, 292, 824, 825, 837, 836
375,  56,  55, 294, 293, 825, 826, 838, 837
376,  55,   6,  72, 294, 826, 823, 827, 838
377,  24, 170, 525, 171, 181, 555, 843, 564
378, 524, 173, 172, 521, 842, 562, 563, 839
379, 529, 527, 177, 176, 847, 845, 568, 569
380, 528, 180, 179, 522, 846, 565, 566, 840
381, 175, 529, 176,  25, 560, 847, 569, 182
382, 529, 175, 174, 523, 847, 560, 561, 841
383,  72,   6, 523, 524, 827, 823, 841, 842
384,  73,  72, 524, 521, 828, 827, 842, 839
385, 171, 525, 521, 172, 564, 843, 839, 563
386, 180, 528, 113,  15, 565, 846, 392, 112
387, 178, 526, 522, 179, 567, 844, 840, 566
388, 113, 528,  57,   5, 392, 846, 824, 391
389, 527,   6,  55, 526, 845, 823, 826, 844
390,  55,  56, 522, 526, 826, 825, 840, 844
391, 528, 522,  56,  57, 846, 840, 825, 824
392, 525, 170,   3,  74, 843, 555, 556, 829
393,  74,  73, 521, 525, 829, 828, 839, 843
394, 523, 174, 173, 524, 841, 561, 562, 842
395, 529, 523,   6, 527, 847, 841, 823, 845
396, 527, 526, 178, 177, 845, 844, 567, 568
397, 388, 830, 559, 106, 107, 537, 187,  13
398, 830, 831, 558, 559, 537, 538, 186, 187
399, 831, 832, 557, 558, 538, 539, 185, 186
400, 832, 829, 556, 557, 539, 536, 184, 185
401, 389, 833, 830, 388, 108, 540, 537, 107
402, 833, 834, 831, 830, 540, 541, 538, 537
403, 834, 835, 832, 831, 541, 542, 539, 538
404, 835, 828, 829, 832, 542, 535, 536, 539
405, 390, 836, 833, 389, 109, 543, 540, 108
406, 836, 837, 834, 833, 543, 544, 541, 540
407, 837, 838, 835, 834, 544, 545, 542, 541
408, 838, 827, 828, 835, 545, 534, 535, 542
409, 391, 824, 836, 390, 110, 531, 543, 109
410, 824, 825, 837, 836, 531, 532, 544, 543
411, 825, 826, 838, 837, 532, 533, 545, 544
412, 826, 823, 827, 838, 533, 530, 534, 545
413, 181, 555, 843, 564,  26, 183, 550, 197
414, 842, 562, 563, 839, 549, 195, 196, 546
415, 847, 845, 568, 569, 554, 552, 191, 192
416, 846, 565, 566, 840, 553, 188, 189, 547
417, 560, 847, 569, 182, 193, 554, 192,  27
418, 847, 560, 561, 841, 554, 193, 194, 548
419, 827, 823, 841, 842, 534, 530, 548, 549
420, 828, 827, 842, 839, 535, 534, 549, 546
421, 564, 843, 839, 563, 197, 550, 546, 196
422, 565, 846, 392, 112, 188, 553, 111,  14
423, 567, 844, 840, 566, 190, 551, 547, 189
424, 392, 846, 824, 391, 111, 553, 531, 110
425, 845, 823, 826, 844, 552, 530, 533, 551
426, 826, 825, 840, 844, 533, 532, 547, 551
427, 846, 840, 825, 824, 553, 547, 532, 531
428, 843, 555, 556, 829, 550, 183, 184, 536
429, 829, 828, 839, 843, 536, 535, 546, 550
430, 841, 561, 562, 842, 548, 194, 195, 549
431, 847, 841, 823, 845, 554, 548, 530, 552
432, 845, 844, 567, 568, 552, 551, 190, 191
433,   2,  39, 349, 105, 106, 559, 855, 609
434,  39,  40, 350, 349, 559, 558, 856, 855
435,  40,  41, 351, 350, 558, 557, 857, 856
436,  41,   3, 100, 351, 557, 556, 849, 857
437, 105, 349, 352, 104, 609, 855, 858, 610
438, 349, 350, 353, 352, 855, 856, 859, 858
439, 350, 351, 354, 353, 856, 857, 860, 859
440, 351, 100, 101, 354, 857, 849, 850, 860
441, 104, 352, 355, 103, 610, 858, 861, 611
442, 352, 353, 356, 355, 858, 859, 862, 861
443, 353, 354, 357, 356, 859, 860, 863, 862
444, 354, 101, 102, 357, 860, 850, 851, 863
445, 103, 355,  83,  10, 611, 861, 854, 612
446, 355, 356,  84,  83, 861, 862, 853, 854
447, 356, 357,  85,  84, 862, 863, 852, 853
448, 357, 102,  11,  85, 863, 851, 848, 852
449,   3, 170, 574, 100, 556, 555, 868, 849
450, 570, 573, 207, 206, 864, 867, 605, 606
451,  11, 571, 572,  85, 848, 865, 866, 852
452, 578, 576, 205, 204, 872, 870, 607, 608
453, 101, 573, 570, 102, 850, 867, 864, 851
454, 100, 574, 573, 101, 849, 868, 867, 850
455,  83, 577, 198,  10, 854, 871, 613, 612
456,  84, 575, 577,  83, 853, 869, 871, 854
457,  85, 572, 575,  84, 852, 866, 869, 853
458, 198, 577, 199,  28, 613, 871, 618, 210
459, 203, 578, 204,  29, 614, 872, 608, 209
460, 203, 202, 571, 578, 614, 615, 865, 872
461, 201, 572, 571, 202, 616, 866, 865, 615
462, 201, 200, 575, 572, 616, 617, 869, 866
463, 574, 170,  24, 208, 868, 555, 181, 604
464, 208, 207, 573, 574, 604, 605, 867, 868
465, 576, 570, 206, 205, 870, 864, 606, 607
466,  11, 576, 578, 571, 848, 870, 872, 865
467, 576,  11, 102, 570, 870, 848, 851, 864
468, 577, 575, 200, 199, 871, 869, 617, 618
469, 106, 559, 855, 609,  13, 187, 586, 225
470, 559, 558, 856, 855, 187, 186, 587, 586
471, 558, 557, 857, 856, 186, 185, 588, 587
472, 557, 556, 849, 857, 185, 184, 580, 588
473, 609, 855, 858, 610, 225, 586, 589, 224
474, 855, 856, 859, 858, 586, 587, 590, 589
475, 856, 857, 860, 859, 587, 588, 591, 590
476, 857, 849, 850, 860, 588, 580, 581, 591
477, 610, 858, 861, 611, 224, 589, 592, 223
478, 858, 859, 862, 861, 589, 590, 593, 592
479, 859, 860, 863, 862, 590, 591, 594, 593
480, 860, 850, 851, 863, 591, 581, 582, 594
481, 611, 861, 854, 612, 223, 592, 585, 222
482, 861, 862, 853, 854, 592, 593, 584, 585
483, 862, 863, 852, 853, 593, 594, 583, 584
484, 863, 851, 848, 852, 594, 582, 579, 583
485, 556, 555, 868, 849, 184, 183, 599, 580
486, 864, 867, 605, 606, 595, 598, 212, 213
487, 848, 865, 866, 852, 579, 596, 597, 583
488, 872, 870, 607, 608, 603, 601, 214, 215
489, 850, 867, 864, 851, 581, 598, 595, 582
490, 849, 868, 867, 850, 580, 599, 598, 581
491, 854, 871, 613, 612, 585, 602, 221, 222
492, 853, 869, 871, 854, 584, 600, 602, 585
493, 852, 866, 869, 853, 583, 597, 600, 584
494, 613, 871, 618, 210, 221, 602, 220,  31
495, 614, 872, 608, 209, 216, 603, 215,  30
496, 614, 615, 865, 872, 216, 217, 596, 603
497, 616, 866, 865, 615, 218, 597, 596, 217
498, 616, 617, 869, 866, 218, 219, 600, 597
499, 868, 555, 181, 604, 599, 183,  26, 211
500, 604, 605, 867, 868, 211, 212, 598, 599
501, 870, 864, 606, 607, 601, 595, 213, 214
502, 848, 870, 872, 865, 579, 601, 603, 596
503, 870, 848, 851, 864, 601, 579, 582, 595
504, 871, 869, 617, 618, 602, 600, 219, 220
505,  10, 155, 488, 103, 612, 874, 880, 611
506, 155, 154, 489, 488, 874, 875, 881, 880
507, 154, 153, 490, 489, 875, 876, 882, 881
508, 153,  22, 164, 490, 876, 873, 877, 882
509, 103, 488, 491, 104, 611, 880, 883, 610
510, 488, 489, 492, 491, 880, 881, 884, 883
511, 489, 490, 493, 492, 881, 882, 885, 884
512, 490, 164, 165, 493, 882, 877, 878, 885
513, 104, 491, 494, 105, 610, 883, 886, 609
514, 491, 492, 495, 494, 883, 884, 887, 886
515, 492, 493, 496, 495, 884, 885, 888, 887
516, 493, 165, 166, 496, 885, 878, 879, 888
517, 105, 494, 133,   2, 609, 886, 448, 106
518, 494, 495, 132, 133, 886, 887, 449, 448
519, 495, 496, 131, 132, 887, 888, 450, 449
520, 496, 166,  20, 131, 888, 879, 451, 450
521,  19, 134, 623, 226, 114, 452, 893, 662
522, 622, 228, 227, 619, 892, 660, 661, 889
523, 231, 627, 625, 232, 657, 897, 895, 656
524, 626, 235, 234, 620, 896, 653, 654, 890
525,  32, 230, 627, 231, 236, 658, 897, 657
526, 627, 230, 229, 621, 897, 658, 659, 891
527, 164,  22, 621, 622, 877, 873, 891, 892
528, 165, 164, 622, 619, 878, 877, 892, 889
529, 226, 623, 619, 227, 662, 893, 889, 661
530, 235, 626, 198,  28, 653, 896, 613, 210
531, 233, 624, 620, 234, 655, 894, 890, 654
532, 232, 625, 624, 233, 656, 895, 894, 655
533, 621,  22, 625, 627, 891, 873, 895, 897
534, 198, 626, 155,  10, 613, 896, 874, 612
535,  22, 153, 624, 625, 873, 876, 894, 895
536, 153, 154, 620, 624, 876, 875, 890, 894
537, 626, 620, 154, 155, 896, 890, 875, 874
538, 623, 134,  20, 166, 893, 452, 451, 879
539, 166, 165, 619, 623, 879, 878, 889, 893
540, 621, 229, 228, 622, 891, 659, 660, 892
541, 612, 874, 880, 611, 222, 629, 635, 223
542, 874, 875, 881, 880, 629, 630, 636, 635
543, 875, 876, 882, 881, 630, 631, 637, 636
544, 876, 873, 877, 882, 631, 628, 632, 637
545, 611, 880, 883, 610, 223, 635, 638, 224
546, 880, 881, 884, 883, 635, 636, 639, 638
547, 881, 882, 885, 884, 636, 637, 640, 639
548, 882, 877, 878, 885, 637, 632, 633, 640
549, 610, 883, 886, 609, 224, 638, 641, 225
550, 883, 884, 887, 886, 638, 639, 642, 641
551, 884, 885, 888, 887, 639, 640, 643, 642
552, 885, 878, 879, 888, 640, 633, 634, 643
553, 609, 886, 448, 106, 225, 641, 140,  13
554, 886, 887, 449, 448, 641, 642, 141, 140
555, 887, 888, 450, 449, 642, 643, 142, 141
556, 888, 879, 451, 450, 643, 634, 143, 142
557, 114, 452, 893, 662,  16, 144, 648, 246
558, 892, 660, 661, 889, 647, 244, 245, 644
559, 657, 897, 895, 656, 241, 652, 650, 240
560, 896, 653, 654, 890, 651, 237, 238, 645
561, 236, 658, 897, 657,  33, 242, 652, 241
562, 897, 658, 659, 891, 652, 242, 243, 646
563, 877, 873, 891, 892, 632, 628, 646, 647
564, 878, 877, 892, 889, 633, 632, 647, 644
565, 662, 893, 889, 661, 246, 648, 644, 245
566, 653, 896, 613, 210, 237, 651, 221,  31
567, 655, 894, 890, 654, 239, 649, 645, 238
568, 656, 895, 894, 655, 240, 650, 649, 239
569, 891, 873, 895, 897, 646, 628, 650, 652
570, 613, 896, 874, 612, 221, 651, 629, 222
571, 873, 876, 894, 895, 628, 631, 649, 650
572, 876, 875, 890, 894, 631, 630, 645, 649
573, 896, 890, 875, 874, 651, 645, 630, 629
574, 893, 452, 451, 879, 648, 144, 143, 634
575, 879, 878, 889, 893, 634, 633, 644, 648
576, 891, 659, 660, 892, 646, 243, 244, 647
*End Part
**  
**
** ASSEMBLY
**
*Assembly, name=Assembly
**  
*Instance, name=Part-3-1, part=Part-3
*End Instance
**  
*End Assembly
